    1C
    1UUSER                                                              
    1UDATE              10.november.2013                                
    1UTIME              20:02:25                                        
    1UHOST                                                              
    1UPGM               CalculiX                                        
    1UDIR                                                               
    1UDBN                                                               
    2C                           171                                     1
 -1         1 1.00000E+01 5.00000E-01-5.00000E-01
 -1         2 1.00000E+01 0.00000E+00-5.00000E-01
 -1         3 1.00000E+01 0.00000E+00 0.00000E+00
 -1         4 1.00000E+01 5.00000E-01 0.00000E+00
 -1         5 8.00000E+00 5.00000E-01-5.00000E-01
 -1         6 8.00000E+00 0.00000E+00-5.00000E-01
 -1         7 8.00000E+00 0.00000E+00 0.00000E+00
 -1         8 8.00000E+00 5.00000E-01-1.38778E-17
 -1         9 1.00000E+01 2.50000E-01-5.00000E-01
 -1        10 1.00000E+01 0.00000E+00-2.50000E-01
 -1        11 1.00000E+01 2.50000E-01 0.00000E+00
 -1        12 1.00000E+01 5.00000E-01-2.50000E-01
 -1        13 9.00000E+00 5.00000E-01-5.00000E-01
 -1        14 9.00000E+00 0.00000E+00-5.00000E-01
 -1        15 9.00000E+00 0.00000E+00 0.00000E+00
 -1        16 9.00000E+00 5.00000E-01-6.93889E-18
 -1        17 8.00000E+00 2.50000E-01-5.00000E-01
 -1        18 8.00000E+00 0.00000E+00-2.50000E-01
 -1        19 8.00000E+00 2.50000E-01 0.00000E+00
 -1        20 8.00000E+00 5.00000E-01-2.50000E-01
 -1        21 1.00000E+01 0.00000E+00 5.00000E-01
 -1        22 1.00000E+01 5.00000E-01 5.00000E-01
 -1        23 8.00000E+00 0.00000E+00 5.00000E-01
 -1        24 8.00000E+00 5.00000E-01 5.00000E-01
 -1        25 1.00000E+01 0.00000E+00 2.50000E-01
 -1        26 1.00000E+01 2.50000E-01 5.00000E-01
 -1        27 1.00000E+01 5.00000E-01 2.50000E-01
 -1        28 9.00000E+00 0.00000E+00 5.00000E-01
 -1        29 9.00000E+00 5.00000E-01 5.00000E-01
 -1        30 8.00000E+00 0.00000E+00 2.50000E-01
 -1        31 8.00000E+00 2.50000E-01 5.00000E-01
 -1        32 8.00000E+00 5.00000E-01 2.50000E-01
 -1        33 6.00000E+00 5.00000E-01-5.00000E-01
 -1        34 6.00000E+00 0.00000E+00-5.00000E-01
 -1        35 6.00000E+00 0.00000E+00 0.00000E+00
 -1        36 6.00000E+00 5.00000E-01 0.00000E+00
 -1        37 7.00000E+00 5.00000E-01-5.00000E-01
 -1        38 7.00000E+00 0.00000E+00-5.00000E-01
 -1        39 7.00000E+00 0.00000E+00 0.00000E+00
 -1        40 7.00000E+00 5.00000E-01 1.38778E-17
 -1        41 6.00000E+00 2.50000E-01-5.00000E-01
 -1        42 6.00000E+00 0.00000E+00-2.50000E-01
 -1        43 6.00000E+00 2.50000E-01 0.00000E+00
 -1        44 6.00000E+00 5.00000E-01-2.50000E-01
 -1        45 6.00000E+00 0.00000E+00 5.00000E-01
 -1        46 6.00000E+00 5.00000E-01 5.00000E-01
 -1        47 7.00000E+00 0.00000E+00 5.00000E-01
 -1        48 7.00000E+00 5.00000E-01 5.00000E-01
 -1        49 6.00000E+00 0.00000E+00 2.50000E-01
 -1        50 6.00000E+00 2.50000E-01 5.00000E-01
 -1        51 6.00000E+00 5.00000E-01 2.50000E-01
 -1        52 4.00000E+00 5.00000E-01-5.00000E-01
 -1        53 4.00000E+00 0.00000E+00-5.00000E-01
 -1        54 4.00000E+00 0.00000E+00 0.00000E+00
 -1        55 4.00000E+00 5.00000E-01 0.00000E+00
 -1        56 5.00000E+00 5.00000E-01-5.00000E-01
 -1        57 5.00000E+00 0.00000E+00-5.00000E-01
 -1        58 5.00000E+00 0.00000E+00 0.00000E+00
 -1        59 5.00000E+00 5.00000E-01 0.00000E+00
 -1        60 4.00000E+00 2.50000E-01-5.00000E-01
 -1        61 4.00000E+00 0.00000E+00-2.50000E-01
 -1        62 4.00000E+00 2.50000E-01 0.00000E+00
 -1        63 4.00000E+00 5.00000E-01-2.50000E-01
 -1        64 4.00000E+00 0.00000E+00 5.00000E-01
 -1        65 4.00000E+00 5.00000E-01 5.00000E-01
 -1        66 5.00000E+00 0.00000E+00 5.00000E-01
 -1        67 5.00000E+00 5.00000E-01 5.00000E-01
 -1        68 4.00000E+00 0.00000E+00 2.50000E-01
 -1        69 4.00000E+00 2.50000E-01 5.00000E-01
 -1        70 4.00000E+00 5.00000E-01 2.50000E-01
 -1        71 2.00000E+00 5.00000E-01-5.00000E-01
 -1        72 2.00000E+00-1.38778E-17-5.00000E-01
 -1        73 2.00000E+00-1.38778E-17 0.00000E+00
 -1        74 2.00000E+00 5.00000E-01 0.00000E+00
 -1        75 3.00000E+00 5.00000E-01-5.00000E-01
 -1        76 3.00000E+00 1.38778E-17-5.00000E-01
 -1        77 3.00000E+00 1.38778E-17 0.00000E+00
 -1        78 3.00000E+00 5.00000E-01 0.00000E+00
 -1        79 2.00000E+00 2.50000E-01-5.00000E-01
 -1        80 2.00000E+00-1.38778E-17-2.50000E-01
 -1        81 2.00000E+00 2.50000E-01 0.00000E+00
 -1        82 2.00000E+00 5.00000E-01-2.50000E-01
 -1        83 2.00000E+00-1.38778E-17 5.00000E-01
 -1        84 2.00000E+00 5.00000E-01 5.00000E-01
 -1        85 3.00000E+00 1.38778E-17 5.00000E-01
 -1        86 3.00000E+00 5.00000E-01 5.00000E-01
 -1        87 2.00000E+00-1.38778E-17 2.50000E-01
 -1        88 2.00000E+00 2.50000E-01 5.00000E-01
 -1        89 2.00000E+00 5.00000E-01 2.50000E-01
 -1        90 0.00000E+00 5.00000E-01-5.00000E-01
 -1        91 0.00000E+00 0.00000E+00-5.00000E-01
 -1        92 0.00000E+00 0.00000E+00 0.00000E+00
 -1        93 0.00000E+00 5.00000E-01 0.00000E+00
 -1        94 1.00000E+00 5.00000E-01-5.00000E-01
 -1        95 1.00000E+00-6.93889E-18-5.00000E-01
 -1        96 1.00000E+00-6.93889E-18 0.00000E+00
 -1        97 1.00000E+00 5.00000E-01 0.00000E+00
 -1        98 0.00000E+00 2.50000E-01-5.00000E-01
 -1        99 0.00000E+00 0.00000E+00-2.50000E-01
 -1       100 0.00000E+00 2.50000E-01 0.00000E+00
 -1       101 0.00000E+00 5.00000E-01-2.50000E-01
 -1       102 0.00000E+00 0.00000E+00 5.00000E-01
 -1       103 0.00000E+00 5.00000E-01 5.00000E-01
 -1       104 1.00000E+00-6.93889E-18 5.00000E-01
 -1       105 1.00000E+00 5.00000E-01 5.00000E-01
 -1       106 0.00000E+00 0.00000E+00 2.50000E-01
 -1       107 0.00000E+00 2.50000E-01 5.00000E-01
 -1       108 0.00000E+00 5.00000E-01 2.50000E-01
 -1       109 1.00000E+01-5.00000E-01-5.00000E-01
 -1       110 1.00000E+01-5.00000E-01 0.00000E+00
 -1       111 8.00000E+00-5.00000E-01-5.00000E-01
 -1       112 8.00000E+00-5.00000E-01 0.00000E+00
 -1       113 1.00000E+01-2.50000E-01-5.00000E-01
 -1       114 1.00000E+01-5.00000E-01-2.50000E-01
 -1       115 1.00000E+01-2.50000E-01 0.00000E+00
 -1       116 9.00000E+00-5.00000E-01-5.00000E-01
 -1       117 9.00000E+00-5.00000E-01 0.00000E+00
 -1       118 8.00000E+00-2.50000E-01-5.00000E-01
 -1       119 8.00000E+00-5.00000E-01-2.50000E-01
 -1       120 8.00000E+00-2.50000E-01 0.00000E+00
 -1       121 1.00000E+01-5.00000E-01 5.00000E-01
 -1       122 8.00000E+00-5.00000E-01 5.00000E-01
 -1       123 1.00000E+01-5.00000E-01 2.50000E-01
 -1       124 1.00000E+01-2.50000E-01 5.00000E-01
 -1       125 9.00000E+00-5.00000E-01 5.00000E-01
 -1       126 8.00000E+00-5.00000E-01 2.50000E-01
 -1       127 8.00000E+00-2.50000E-01 5.00000E-01
 -1       128 6.00000E+00-5.00000E-01-5.00000E-01
 -1       129 6.00000E+00-5.00000E-01 0.00000E+00
 -1       130 7.00000E+00-5.00000E-01-5.00000E-01
 -1       131 7.00000E+00-5.00000E-01 0.00000E+00
 -1       132 6.00000E+00-2.50000E-01-5.00000E-01
 -1       133 6.00000E+00-5.00000E-01-2.50000E-01
 -1       134 6.00000E+00-2.50000E-01 0.00000E+00
 -1       135 6.00000E+00-5.00000E-01 5.00000E-01
 -1       136 7.00000E+00-5.00000E-01 5.00000E-01
 -1       137 6.00000E+00-5.00000E-01 2.50000E-01
 -1       138 6.00000E+00-2.50000E-01 5.00000E-01
 -1       139 4.00000E+00-5.00000E-01-5.00000E-01
 -1       140 4.00000E+00-5.00000E-01 0.00000E+00
 -1       141 5.00000E+00-5.00000E-01-5.00000E-01
 -1       142 5.00000E+00-5.00000E-01 0.00000E+00
 -1       143 4.00000E+00-2.50000E-01-5.00000E-01
 -1       144 4.00000E+00-5.00000E-01-2.50000E-01
 -1       145 4.00000E+00-2.50000E-01 0.00000E+00
 -1       146 4.00000E+00-5.00000E-01 5.00000E-01
 -1       147 5.00000E+00-5.00000E-01 5.00000E-01
 -1       148 4.00000E+00-5.00000E-01 2.50000E-01
 -1       149 4.00000E+00-2.50000E-01 5.00000E-01
 -1       150 2.00000E+00-5.00000E-01-5.00000E-01
 -1       151 2.00000E+00-5.00000E-01-1.38778E-17
 -1       152 3.00000E+00-5.00000E-01-5.00000E-01
 -1       153 3.00000E+00-5.00000E-01 1.38778E-17
 -1       154 2.00000E+00-2.50000E-01-5.00000E-01
 -1       155 2.00000E+00-5.00000E-01-2.50000E-01
 -1       156 2.00000E+00-2.50000E-01 0.00000E+00
 -1       157 2.00000E+00-5.00000E-01 5.00000E-01
 -1       158 3.00000E+00-5.00000E-01 5.00000E-01
 -1       159 2.00000E+00-5.00000E-01 2.50000E-01
 -1       160 2.00000E+00-2.50000E-01 5.00000E-01
 -1       161 0.00000E+00-5.00000E-01-5.00000E-01
 -1       162 0.00000E+00-5.00000E-01 0.00000E+00
 -1       163 1.00000E+00-5.00000E-01-5.00000E-01
 -1       164 1.00000E+00-5.00000E-01-6.93889E-18
 -1       165 0.00000E+00-2.50000E-01-5.00000E-01
 -1       166 0.00000E+00-5.00000E-01-2.50000E-01
 -1       167 0.00000E+00-2.50000E-01 0.00000E+00
 -1       168 0.00000E+00-5.00000E-01 5.00000E-01
 -1       169 1.00000E+00-5.00000E-01 5.00000E-01
 -1       170 0.00000E+00-5.00000E-01 2.50000E-01
 -1       171 0.00000E+00-2.50000E-01 5.00000E-01
 -3
    3C                            20                                     1
 -1         1    4    0MATER
 -2         1         2         3         4         5         6         7         8         9        10
 -2        11        12        13        14        15        16        17        18        19        20
 -1         2    4    0MATER
 -2         4         3        21        22         8         7        23        24        11        25
 -2        26        27        16        15        28        29        19        30        31        32
 -1         3    4    0MATER
 -2         5         6         7         8        33        34        35        36        17        18
 -2        19        20        37        38        39        40        41        42        43        44
 -1         4    4    0MATER
 -2         8         7        23        24        36        35        45        46        19        30
 -2        31        32        40        39        47        48        43        49        50        51
 -1         5    4    0MATER
 -2        33        34        35        36        52        53        54        55        41        42
 -2        43        44        56        57        58        59        60        61        62        63
 -1         6    4    0MATER
 -2        36        35        45        46        55        54        64        65        43        49
 -2        50        51        59        58        66        67        62        68        69        70
 -1         7    4    0MATER
 -2        52        53        54        55        71        72        73        74        60        61
 -2        62        63        75        76        77        78        79        80        81        82
 -1         8    4    0MATER
 -2        55        54        64        65        74        73        83        84        62        68
 -2        69        70        78        77        85        86        81        87        88        89
 -1         9    4    0MATER
 -2        71        72        73        74        90        91        92        93        79        80
 -2        81        82        94        95        96        97        98        99       100       101
 -1        10    4    0MATER
 -2        74        73        83        84        93        92       102       103        81        87
 -2        88        89        97        96       104       105       100       106       107       108
 -1        11    4    0MATER
 -2         2       109       110         3         6       111       112         7       113       114
 -2       115        10        14       116       117        15       118       119       120        18
 -1        12    4    0MATER
 -2         3       110       121        21         7       112       122        23       115       123
 -2       124        25        15       117       125        28       120       126       127        30
 -1        13    4    0MATER
 -2         6       111       112         7        34       128       129        35       118       119
 -2       120        18        38       130       131        39       132       133       134        42
 -1        14    4    0MATER
 -2         7       112       122        23        35       129       135        45       120       126
 -2       127        30        39       131       136        47       134       137       138        49
 -1        15    4    0MATER
 -2        34       128       129        35        53       139       140        54       132       133
 -2       134        42        57       141       142        58       143       144       145        61
 -1        16    4    0MATER
 -2        35       129       135        45        54       140       146        64       134       137
 -2       138        49        58       142       147        66       145       148       149        68
 -1        17    4    0MATER
 -2        53       139       140        54        72       150       151        73       143       144
 -2       145        61        76       152       153        77       154       155       156        80
 -1        18    4    0MATER
 -2        54       140       146        64        73       151       157        83       145       148
 -2       149        68        77       153       158        85       156       159       160        87
 -1        19    4    0MATER
 -2        72       150       151        73        91       161       162        92       154       155
 -2       156        80        95       163       164        96       165       166       167        99
 -1        20    4    0MATER
 -2        73       151       157        83        92       162       168       102       156       159
 -2       160        87        96       164       169       104       167       170       171       106
 -3
    1PSTEP                         1           1           1          
    1PGM                1.000000E+00                                  
    1PGK                2.698106E+03                                  
    1PHID                         -1                                  
    1PSUBC                         0                                  
    1PMODE                         1                                  
  100CL  101 8.26703E+00         171                     2    1MODAL      1
 -4  DISP        4    1
 -5  D1          1    2    1    0
 -5  D2          1    2    2    0
 -5  D3          1    2    3    0
 -5  ALL         1    2    0    0    1ALL
 -1         1 6.98750E-04-5.03090E-03 5.09809E-03
 -1         2 3.51706E-04-5.03083E-03 5.09808E-03
 -1         3 7.89706E-17-5.03086E-03 5.09805E-03
 -1         4 3.47071E-04-5.03089E-03 5.09802E-03
 -1         5 6.90617E-04-3.64581E-03 3.69448E-03
 -1         6 3.47695E-04-3.64443E-03 3.69403E-03
 -1         7 7.42814E-17-3.64489E-03 3.69357E-03
 -1         8 3.43112E-04-3.64535E-03 3.69311E-03
 -1         9 5.25220E-04-5.03087E-03 5.09808E-03
 -1        10 1.75845E-04-5.03083E-03 5.09807E-03
 -1        11 1.73528E-04-5.03088E-03 5.09802E-03
 -1        12 5.22902E-04-5.03089E-03 5.09806E-03
 -1        13 6.97064E-04-4.33676E-03 4.39468E-03
 -1        14 3.50892E-04-4.33633E-03 4.39455E-03
 -1        15 7.43661E-17-4.33648E-03 4.39440E-03
 -1        16 3.46268E-04-4.33663E-03 4.39425E-03
 -1        17 5.18982E-04-3.64503E-03 3.69435E-03
 -1        18 1.73663E-04-3.64475E-03 3.69371E-03
 -1        19 1.71374E-04-3.64503E-03 3.69343E-03
 -1        20 5.16687E-04-3.64567E-03 3.69370E-03
 -1        21-3.51706E-04-5.03083E-03 5.09808E-03
 -1        22-4.63521E-06-5.03083E-03 5.09803E-03
 -1        23-3.47695E-04-3.64443E-03 3.69403E-03
 -1        24-4.58126E-06-3.64398E-03 3.69267E-03
 -1        25-1.75845E-04-5.03083E-03 5.09807E-03
 -1        26-1.78183E-04-5.03084E-03 5.09804E-03
 -1        27 1.71230E-04-5.03085E-03 5.09803E-03
 -1        28-3.50892E-04-4.33633E-03 4.39455E-03
 -1        29-4.62402E-06-4.33622E-03 4.39414E-03
 -1        30-1.73663E-04-3.64475E-03 3.69371E-03
 -1        31-1.76407E-04-3.64412E-03 3.69344E-03
 -1        32 1.69537E-04-3.64475E-03 3.69280E-03
 -1        33 6.39169E-04-2.31199E-03 2.34279E-03
 -1        34 3.21876E-04-2.30724E-03 2.34124E-03
 -1        35 5.98607E-17-2.30881E-03 2.33965E-03
 -1        36 3.17634E-04-2.31039E-03 2.33806E-03
 -1        37 6.71082E-04-2.96643E-03 3.00600E-03
 -1        38 3.37895E-04-2.96355E-03 3.00507E-03
 -1        39 6.95338E-17-2.96451E-03 3.00410E-03
 -1        40 3.33442E-04-2.96546E-03 3.00313E-03
 -1        41 4.80237E-04-2.30920E-03 2.34244E-03
 -1        42 1.60631E-04-2.30844E-03 2.34002E-03
 -1        43 1.58514E-04-2.30918E-03 2.33927E-03
 -1        44 4.78110E-04-2.31161E-03 2.34000E-03
 -1        45-3.21876E-04-2.30724E-03 2.34124E-03
 -1        46-4.23997E-06-2.30562E-03 2.33650E-03
 -1        47-3.37895E-04-2.96355E-03 3.00507E-03
 -1        48-4.45167E-06-2.96261E-03 3.00223E-03
 -1        49-1.60631E-04-2.30844E-03 2.34002E-03
 -1        50-1.63508E-04-2.30602E-03 2.33929E-03
 -1        51 1.57150E-04-2.30842E-03 2.33686E-03
 -1        52 5.14705E-04-1.14798E-03 1.16314E-03
 -1        53 2.59380E-04-1.13872E-03 1.16012E-03
 -1        54 4.28745E-17-1.14180E-03 1.15705E-03
 -1        55 2.55961E-04-1.14483E-03 1.15393E-03
 -1        56 5.85378E-04-1.69936E-03 1.72193E-03
 -1        57 2.94797E-04-1.69232E-03 1.71963E-03
 -1        58 5.15462E-17-1.69465E-03 1.71728E-03
 -1        59 2.90911E-04-1.69697E-03 1.71492E-03
 -1        60 3.86689E-04-1.14269E-03 1.16231E-03
 -1        61 1.29323E-04-1.14093E-03 1.15792E-03
 -1        62 1.27619E-04-1.14266E-03 1.15617E-03
 -1        63 3.84973E-04-1.14707E-03 1.15786E-03
 -1        64-2.59380E-04-1.13872E-03 1.16012E-03
 -1        65-3.41434E-06-1.13540E-03 1.15073E-03
 -1        66-2.94797E-04-1.69232E-03 1.71963E-03
 -1        67-3.88315E-06-1.68997E-03 1.71266E-03
 -1        68-1.29323E-04-1.14093E-03 1.15792E-03
 -1        69-1.31941E-04-1.13640E-03 1.15609E-03
 -1        70 1.26822E-04-1.14077E-03 1.15166E-03
 -1        71 2.98423E-04-3.18298E-04 3.22318E-04
 -1        72 1.51196E-04-3.05565E-04 3.18266E-04
 -1        73 2.26865E-17-3.09938E-04 3.14077E-04
 -1        74 1.49203E-04-3.14071E-04 3.09647E-04
 -1        75 4.16523E-04-6.80576E-04 6.89449E-04
 -1        76 2.09718E-04-6.68209E-04 6.85437E-04
 -1        77 3.32105E-17-6.72249E-04 6.81228E-04
 -1        78 2.06954E-04-6.76403E-04 6.77133E-04
 -1        79 2.24313E-04-3.10254E-04 3.21969E-04
 -1        80 7.50638E-05-3.09404E-04 3.14464E-04
 -1        81 7.40745E-05-3.10319E-04 3.13536E-04
 -1        82 2.23308E-04-3.17839E-04 3.14282E-04
 -1        83-1.51196E-04-3.05565E-04 3.18266E-04
 -1        84-1.97961E-06-3.00901E-04 3.05150E-04
 -1        85-2.09718E-04-6.68209E-04 6.85437E-04
 -1        86-2.76304E-06-6.64233E-04 6.73321E-04
 -1        87-7.50638E-05-3.09404E-04 3.14464E-04
 -1        88-7.72235E-05-3.01573E-04 3.13381E-04
 -1        89 7.42542E-05-3.09137E-04 3.05716E-04
 -1        90 0.00000E+00 0.00000E+00 0.00000E+00
 -1        91 0.00000E+00 0.00000E+00 0.00000E+00
 -1        92 0.00000E+00 0.00000E+00 0.00000E+00
 -1        93 0.00000E+00 0.00000E+00 0.00000E+00
 -1        94 1.51647E-04-9.33920E-05 9.43026E-05
 -1        95 7.55568E-05-7.43354E-05 8.79093E-05
 -1        96 1.05052E-17-8.03349E-05 8.14078E-05
 -1        97 7.45610E-05-8.67507E-05 7.53282E-05
 -1        98 0.00000E+00 0.00000E+00 0.00000E+00
 -1        99 0.00000E+00 0.00000E+00 0.00000E+00
 -1       100 0.00000E+00 0.00000E+00 0.00000E+00
 -1       101 0.00000E+00 0.00000E+00 0.00000E+00
 -1       102 0.00000E+00 0.00000E+00 0.00000E+00
 -1       103 0.00000E+00 0.00000E+00 0.00000E+00
 -1       104-7.55568E-05-7.43354E-05 8.79093E-05
 -1       105-1.00596E-06-6.80115E-05 6.92565E-05
 -1       106 0.00000E+00 0.00000E+00 0.00000E+00
 -1       107 0.00000E+00 0.00000E+00 0.00000E+00
 -1       108 0.00000E+00 0.00000E+00 0.00000E+00
 -1       109 4.63521E-06-5.03083E-03 5.09803E-03
 -1       110-3.47071E-04-5.03089E-03 5.09802E-03
 -1       111 4.58126E-06-3.64398E-03 3.69267E-03
 -1       112-3.43112E-04-3.64535E-03 3.69311E-03
 -1       113 1.78183E-04-5.03084E-03 5.09804E-03
 -1       114-1.71230E-04-5.03085E-03 5.09803E-03
 -1       115-1.73528E-04-5.03088E-03 5.09802E-03
 -1       116 4.62402E-06-4.33622E-03 4.39414E-03
 -1       117-3.46268E-04-4.33663E-03 4.39425E-03
 -1       118 1.76407E-04-3.64412E-03 3.69344E-03
 -1       119-1.69537E-04-3.64475E-03 3.69280E-03
 -1       120-1.71374E-04-3.64503E-03 3.69343E-03
 -1       121-6.98750E-04-5.03090E-03 5.09809E-03
 -1       122-6.90617E-04-3.64581E-03 3.69448E-03
 -1       123-5.22902E-04-5.03089E-03 5.09806E-03
 -1       124-5.25220E-04-5.03087E-03 5.09808E-03
 -1       125-6.97064E-04-4.33676E-03 4.39468E-03
 -1       126-5.16687E-04-3.64567E-03 3.69370E-03
 -1       127-5.18982E-04-3.64503E-03 3.69435E-03
 -1       128 4.23997E-06-2.30562E-03 2.33650E-03
 -1       129-3.17634E-04-2.31039E-03 2.33806E-03
 -1       130 4.45167E-06-2.96261E-03 3.00223E-03
 -1       131-3.33442E-04-2.96546E-03 3.00313E-03
 -1       132 1.63508E-04-2.30602E-03 2.33929E-03
 -1       133-1.57150E-04-2.30842E-03 2.33686E-03
 -1       134-1.58514E-04-2.30918E-03 2.33927E-03
 -1       135-6.39169E-04-2.31199E-03 2.34279E-03
 -1       136-6.71082E-04-2.96643E-03 3.00600E-03
 -1       137-4.78110E-04-2.31161E-03 2.34000E-03
 -1       138-4.80237E-04-2.30920E-03 2.34244E-03
 -1       139 3.41434E-06-1.13540E-03 1.15073E-03
 -1       140-2.55961E-04-1.14483E-03 1.15393E-03
 -1       141 3.88315E-06-1.68997E-03 1.71266E-03
 -1       142-2.90911E-04-1.69697E-03 1.71492E-03
 -1       143 1.31941E-04-1.13640E-03 1.15609E-03
 -1       144-1.26822E-04-1.14077E-03 1.15166E-03
 -1       145-1.27619E-04-1.14266E-03 1.15617E-03
 -1       146-5.14705E-04-1.14798E-03 1.16314E-03
 -1       147-5.85378E-04-1.69936E-03 1.72193E-03
 -1       148-3.84973E-04-1.14707E-03 1.15786E-03
 -1       149-3.86689E-04-1.14269E-03 1.16231E-03
 -1       150 1.97961E-06-3.00901E-04 3.05150E-04
 -1       151-1.49203E-04-3.14071E-04 3.09647E-04
 -1       152 2.76304E-06-6.64233E-04 6.73321E-04
 -1       153-2.06954E-04-6.76403E-04 6.77133E-04
 -1       154 7.72235E-05-3.01573E-04 3.13381E-04
 -1       155-7.42542E-05-3.09137E-04 3.05716E-04
 -1       156-7.40745E-05-3.10319E-04 3.13536E-04
 -1       157-2.98423E-04-3.18298E-04 3.22318E-04
 -1       158-4.16523E-04-6.80576E-04 6.89449E-04
 -1       159-2.23308E-04-3.17839E-04 3.14282E-04
 -1       160-2.24313E-04-3.10254E-04 3.21969E-04
 -1       161 0.00000E+00 0.00000E+00 0.00000E+00
 -1       162 0.00000E+00 0.00000E+00 0.00000E+00
 -1       163 1.00596E-06-6.80115E-05 6.92565E-05
 -1       164-7.45610E-05-8.67507E-05 7.53282E-05
 -1       165 0.00000E+00 0.00000E+00 0.00000E+00
 -1       166 0.00000E+00 0.00000E+00 0.00000E+00
 -1       167 0.00000E+00 0.00000E+00 0.00000E+00
 -1       168 0.00000E+00 0.00000E+00 0.00000E+00
 -1       169-1.51647E-04-9.33920E-05 9.43026E-05
 -1       170 0.00000E+00 0.00000E+00 0.00000E+00
 -1       171 0.00000E+00 0.00000E+00 0.00000E+00
 -3
    1PSTEP                         2           1           1          
    1PGM                1.000000E+00                                  
    1PGK                2.698106E+03                                  
    1PHID                         -1                                  
    1PSUBC                         0                                  
    1PMODE                         1                                  
  100CL  101 8.26703E+00         171                     2    1MODAL      1
 -4  STRESS      6    1
 -5  SXX         1    4    1    1
 -5  SYY         1    4    2    2
 -5  SZZ         1    4    3    3
 -5  SXY         1    4    1    2
 -5  SYZ         1    4    2    3
 -5  SZX         1    4    3    1
 -1         1-1.99978E+05-1.01939E+05-1.01822E+05-1.21151E+05 1.25053E+04 1.22750E+05
 -1         2-1.07230E+05-6.05562E+04-4.45219E+04-1.34699E+05 7.20283E+03 1.20520E+05
 -1         3-2.22725E-06-4.61882E-06-7.44297E-06-1.30096E+05 3.27171E-06 1.31833E+05
 -1         4-1.05817E+05-4.39351E+04-5.97581E+04-1.18931E+05 7.29903E+03 1.36498E+05
 -1         5 2.18820E+06-4.84718E+04-4.81327E+04-2.58981E+05 2.49274E+04 2.63017E+05
 -1         6 1.09270E+06-4.10017E+04-9.60634E+03-5.86310E+05 1.39737E+04 2.61690E+05
 -1         7 1.56429E-06 2.75016E-06 2.43365E-06-5.14994E+05-2.83131E-07 5.21872E+05
 -1         8 1.07830E+06-9.47973E+03-4.04613E+04-2.58242E+05 1.41603E+04 5.94141E+05
 -1         9-1.40651E+05-9.36336E+04-7.31778E+04-1.32134E+05 5.02565E+03 1.17785E+05
 -1        10-3.95625E+04-3.09436E+04-3.36814E+04-1.28277E+05-7.74105E+02 1.30009E+05
 -1        11-3.90411E+04-3.32375E+04-3.05358E+04-1.28296E+05-7.84444E+02 1.29990E+05
 -1        12-1.39629E+05-7.29189E+04-9.32917E+04-1.16251E+05 5.13278E+03 1.33878E+05
 -1        13 8.25596E+05 2.06590E+04 2.04466E+04 4.02800E+04-1.12274E+04-4.05233E+04
 -1        14 4.07021E+05 1.41326E+04 5.48147E+03-1.29481E+05-4.80191E+03-4.09065E+04
 -1        15-6.83725E-07-2.60504E-06-1.23117E-06-9.27882E+04 5.78922E-07 9.40274E+04
 -1        16 4.01657E+05 5.40922E+03 1.39464E+04 4.03674E+04-4.86604E+03 1.31210E+05
 -1        17 1.64661E+06-6.61040E+04-3.37082E+04-4.23655E+05 1.16467E+04 2.52911E+05
 -1        18 5.53069E+05-2.65302E+04-2.64854E+04-5.35343E+05-6.28447E+01 4.00129E+05
 -1        19 5.45780E+05-2.61363E+04-2.61806E+04-3.94855E+05-6.36840E+01 5.42493E+05
 -1        20 1.63961E+06-3.38632E+04-6.59079E+04-2.49455E+05 1.18362E+04 4.29793E+05
 -1        21 1.07230E+05 6.05562E+04 4.45219E+04-1.34699E+05-7.20283E+03 1.20520E+05
 -1        22 1.32657E+03 9.47986E+03-8.12819E+03-1.19743E+05 8.29548E+01 1.21361E+05
 -1        23-1.09270E+06 4.10017E+04 9.60634E+03-5.86310E+05-1.39737E+04 2.61690E+05
 -1        24-1.45156E+04 2.58845E+04-2.52437E+04-3.02507E+05 1.65358E+02 3.05969E+05
 -1        25 3.95625E+04 3.09436E+04 3.36814E+04-1.28277E+05 7.74105E+02 1.30009E+05
 -1        26 7.79021E+04 2.63884E+04 1.99991E+04-1.30616E+05-8.04054E+03 1.16439E+05
 -1        27-7.60428E+04-1.90299E+04-2.51484E+04-1.14886E+05 8.10793E+03 1.32380E+05
 -1        28-4.07021E+05-1.41326E+04-5.48147E+03-1.29481E+05 4.80191E+03-4.09065E+04
 -1        29-5.47665E+03-1.61472E+04 1.58745E+04 1.80706E+04-7.44777E+01-1.86066E+04
 -1        30-5.53069E+05 2.65302E+04 2.64854E+04-5.35343E+05 6.28447E+01 4.00129E+05
 -1        31-5.38313E+05 1.52187E+04-1.14602E+04-4.59817E+05-1.42055E+04 2.62180E+05
 -1        32 5.16514E+05 1.19084E+04-1.43430E+04-2.58847E+05 1.43613E+04 4.65479E+05
 -1        33 8.27415E+06-1.18022E+05-1.18367E+05-4.42094E+05-3.09828E+04 4.48898E+05
 -1        34 4.16663E+06-4.73491E+04-7.70146E+04-9.85969E+05-1.27415E+04 4.41830E+05
 -1        35 8.87376E-07-1.29215E-06-2.50881E-06-8.64911E+05 2.19417E-07 8.76463E+05
 -1        36 4.11172E+06-7.59995E+04-4.67250E+04-4.36007E+05-1.29117E+04 9.99138E+05
 -1        37 5.13174E+06-2.19176E+04-2.22924E+04 1.00400E+05-2.22544E+04-1.01002E+05
 -1        38 2.57510E+06 4.10486E+02-2.31512E+04-3.32420E+05-1.08106E+04-1.04916E+05
 -1        39 8.58519E-07-5.80671E-07-1.36426E-06-2.38286E+05-2.13634E-07 2.41468E+05
 -1        40 2.54117E+06-2.28461E+04 4.05076E+02 1.03533E+05-1.09550E+04 3.36860E+05
 -1        41 6.24424E+06-5.07910E+04-8.11057E+04-7.13149E+05-1.57529E+04 4.31469E+05
 -1        42 2.10589E+06-8.74006E+03-9.03764E+03-9.01978E+05 8.69600E+02 6.70304E+05
 -1        43 2.07814E+06-8.91853E+03-8.62486E+03-6.61470E+05 8.81214E+02 9.14025E+05
 -1        44 6.21717E+06-8.01889E+04-5.01977E+04-4.25601E+05-1.59172E+04 7.23441E+05
 -1        45-4.16663E+06 4.73491E+04 7.70146E+04-9.85969E+05 1.27415E+04 4.41830E+05
 -1        46-5.48872E+04-2.51957E+04 2.67638E+04-5.09898E+05-2.05527E+02 5.15809E+05
 -1        47-2.57510E+06-4.10486E+02 2.31512E+04-3.32420E+05 1.08106E+04-1.04916E+05
 -1        48-3.40418E+04-2.81062E+04 2.83995E+04 4.46621E+04-1.47626E+02-4.59981E+04
 -1        49-2.10589E+06 8.74006E+03 9.03764E+03-9.01978E+05-8.69600E+02 6.70304E+05
 -1        50-2.08155E+06 4.50494E+04 6.96405E+04-7.70943E+05 1.22771E+04 4.45108E+05
 -1        51 1.99889E+06-6.85705E+04-4.43795E+04-4.39423E+05-1.24872E+04 7.80473E+05
 -1        52 1.70324E+07 4.97012E+05 4.99460E+05-5.29186E+05 1.22962E+05 5.37675E+05
 -1        53 8.64456E+06 1.86098E+05 3.57576E+05-1.22993E+06 7.22480E+04 5.20017E+05
 -1        54 1.88241E-06 4.78147E-07-2.44414E-07-1.05023E+06 6.52220E-07 1.06425E+06
 -1        55 8.53063E+06 3.52863E+05 1.83645E+05-5.13163E+05 7.32129E+04 1.24636E+06
 -1        56 1.25123E+07 1.09210E+05 1.09780E+05 1.31682E+05 4.88655E+04-1.32396E+05
 -1        57 6.28496E+06 3.30060E+04 8.41396E+04-4.63855E+05 2.29060E+04-1.32767E+05
 -1        58 9.97883E-07-1.19938E-06-1.13571E-06-3.34029E+05 7.31416E-08 3.38490E+05
 -1        59 6.20213E+06 8.30306E+04 3.25710E+04 1.31017E+05 2.32119E+04 4.70050E+05
 -1        60 1.28165E+07 2.62064E+05 3.97463E+05-8.99179E+05 5.94534E+04 5.03440E+05
 -1        61 4.29137E+06 5.22742E+04 7.77937E+04-1.10189E+06 4.06301E+03 8.16907E+05
 -1        62 4.23481E+06 7.67684E+04 5.15852E+04-8.06140E+05 4.11728E+03 1.11661E+06
 -1        63 1.27592E+07 3.93434E+05 2.60980E+05-4.96458E+05 6.04208E+04 9.12019E+05
 -1        64-8.64456E+06-1.86098E+05-3.57576E+05-1.22993E+06-7.22480E+04 5.20017E+05
 -1        65-1.12986E+05 1.81254E+05-1.87864E+05-6.36279E+05 8.15681E+02 6.43356E+05
 -1        66-6.28496E+06-3.30060E+04-8.41396E+04-4.63855E+05-2.29060E+04-1.32767E+05
 -1        67-8.30016E+04 4.22593E+04-4.37120E+04 5.29409E+04 3.24153E+02-5.46927E+04
 -1        68-4.29137E+06-5.22742E+04-7.77937E+04-1.10189E+06-4.06301E+03 8.16907E+05
 -1        69-4.40393E+06-8.34106E+04-3.06317E+05-9.61761E+05-7.25181E+04 5.29616E+05
 -1        70 4.23428E+06 3.01071E+05 7.99410E+04-5.22983E+05 7.33133E+04 9.73776E+05
 -1        71 2.76880E+07 7.51842E+05 7.43251E+05-1.35472E+05-7.76293E+05 1.44519E+05
 -1        72 1.41199E+07 7.90665E+05 6.53268E+04-1.32909E+06-3.67564E+05 6.42173E+04
 -1        73 2.47743E-06 3.08501E-08 2.28727E-07-9.44083E+05-1.18205E-07 9.56692E+05
 -1        74 1.39338E+07 6.44658E+04 7.80244E+05-6.33709E+04-3.72473E+05 1.34685E+06
 -1        75 2.12444E+07-6.39070E+05-6.42255E+05 1.66787E+05-1.79505E+05-1.68210E+05
 -1        76 1.06151E+07-2.15209E+05-4.63315E+05-5.29049E+05-9.30843E+04-1.62583E+05
 -1        77 1.77050E-06-1.81244E-07-6.52624E-07-4.29198E+05 3.34388E-07 4.34930E+05
 -1        78 1.04752E+07-4.57209E+05-2.12373E+05 1.60440E+05-9.43275E+04 5.36114E+05
 -1        79 2.11855E+07 1.47189E+06 6.97723E+05-7.74623E+05-4.04151E+05 1.12742E+05
 -1        80 7.34018E+06 6.88616E+05 7.33126E+05-1.13887E+06-1.31602E+04 4.97676E+05
 -1        81 7.24343E+06 7.23464E+05 6.79541E+05-4.91117E+05-1.33360E+04 1.15408E+06
 -1        82 2.10960E+07 7.05439E+05 1.47167E+06-1.07846E+05-4.08750E+05 7.87127E+05
 -1        83-1.41199E+07-7.90665E+05-6.53268E+04-1.32909E+06 3.67564E+05 6.42173E+04
 -1        84-1.83670E+05-6.52446E+05 6.42528E+05-6.81012E+05-5.14960E+03 6.82870E+05
 -1        85-1.06151E+07 2.15209E+05 4.63315E+05-5.29049E+05 9.30843E+04-1.62583E+05
 -1        86-1.40926E+05-2.35864E+05 2.44364E+05 1.06146E+05-1.19076E+03-1.08368E+05
 -1        87-7.34018E+06-6.88616E+05-7.33126E+05-1.13887E+06 1.31602E+04 4.97676E+05
 -1        88-6.88405E+06-2.63035E+04 5.76898E+05-9.37325E+05 3.43960E+05 3.69737E+05
 -1        89 6.60357E+06-5.86206E+05 6.77720E+03-3.68274E+05-3.49352E+05 9.47685E+05
 -1        90 4.14831E+07 1.77787E+07 1.77787E+07-2.12577E+06 3.89793E+00 2.11123E+06
 -1        91 2.03309E+07 8.71336E+06 8.71337E+06 3.16322E+05 1.91025E+00 1.28350E+06
 -1        92 2.59635E-06 1.12434E-06 1.09302E-06-4.38502E+05-3.31238E-09 4.44359E+05
 -1        93 2.00630E+07 8.59853E+06 8.59852E+06-1.26658E+06 1.93576E+00-3.20547E+05
 -1        94 2.98377E+07-1.48795E+04-3.22269E+03-3.83290E+05 9.80390E+05 3.82105E+05
 -1        95 1.51408E+07-3.89240E+05 4.58513E+05-3.38989E+05 4.95907E+05 4.52579E+05
 -1        96 2.12295E-06-2.59839E-07-2.29455E-07-6.11933E+05-9.78762E-08 6.20106E+05
 -1        97 1.49412E+07 4.52470E+05-3.84110E+05-4.46614E+05 5.02530E+05 3.43516E+05
 -1        98 3.08414E+07 1.32175E+07 1.32175E+07-8.40228E+05 4.54688E+00 1.76189E+06
 -1        99 1.00941E+07 4.32592E+06 4.32592E+06-1.24670E+05 9.31926E-01 7.98281E+05
 -1       100 9.96107E+06 4.26890E+06 4.26890E+06-7.87760E+05 9.44373E-01 1.26335E+05
 -1       101 3.07063E+07 1.31596E+07 1.31596E+07-1.75985E+06 4.58171E+00 8.29994E+05
 -1       102-2.03309E+07-8.71336E+06-8.71337E+06 3.16322E+05-1.91025E+00 1.28350E+06
 -1       103-2.75181E+05-1.17931E+05-1.17942E+05 1.10983E+06 2.58573E-02-1.08172E+06
 -1       104-1.51408E+07 3.89240E+05-4.58513E+05-3.38989E+05-4.95907E+05 4.52579E+05
 -1       105-1.97931E+05 8.78680E+05-8.78560E+05 9.18827E+04 6.50349E+03-8.68054E+04
 -1       106-1.00941E+07-4.32592E+06-4.32592E+06-1.24670E+05-9.31926E-01 7.98281E+05
 -1       107-1.03888E+07-4.45235E+06-4.45236E+06 7.76888E+05-2.59562E+00 1.65249E+05
 -1       108 9.98055E+06 4.27738E+06 4.27738E+06-1.41887E+05 2.65618E+00-7.65809E+05
 -1       109-1.32657E+03-9.47986E+03 8.12819E+03-1.19743E+05-8.29548E+01 1.21361E+05
 -1       110 1.05817E+05 4.39351E+04 5.97581E+04-1.18931E+05-7.29903E+03 1.36498E+05
 -1       111 1.45156E+04-2.58845E+04 2.52437E+04-3.02507E+05-1.65358E+02 3.05969E+05
 -1       112-1.07830E+06 9.47973E+03 4.04613E+04-2.58242E+05-1.41603E+04 5.94141E+05
 -1       113-7.79021E+04-2.63884E+04-1.99991E+04-1.30616E+05 8.04054E+03 1.16439E+05
 -1       114 7.60428E+04 1.90299E+04 2.51484E+04-1.14886E+05-8.10793E+03 1.32380E+05
 -1       115 3.90411E+04 3.32375E+04 3.05358E+04-1.28296E+05 7.84444E+02 1.29990E+05
 -1       116 5.47665E+03 1.61472E+04-1.58745E+04 1.80706E+04 7.44777E+01-1.86066E+04
 -1       117-4.01657E+05-5.40922E+03-1.39464E+04 4.03674E+04 4.86604E+03 1.31210E+05
 -1       118 5.38313E+05-1.52187E+04 1.14602E+04-4.59817E+05 1.42055E+04 2.62180E+05
 -1       119-5.16514E+05-1.19084E+04 1.43430E+04-2.58847E+05-1.43613E+04 4.65479E+05
 -1       120-5.45780E+05 2.61363E+04 2.61806E+04-3.94855E+05 6.36840E+01 5.42493E+05
 -1       121 1.99978E+05 1.01939E+05 1.01822E+05-1.21151E+05-1.25053E+04 1.22750E+05
 -1       122-2.18820E+06 4.84718E+04 4.81327E+04-2.58981E+05-2.49274E+04 2.63017E+05
 -1       123 1.39629E+05 7.29189E+04 9.32917E+04-1.16251E+05-5.13278E+03 1.33878E+05
 -1       124 1.40651E+05 9.36336E+04 7.31778E+04-1.32134E+05-5.02565E+03 1.17785E+05
 -1       125-8.25596E+05-2.06590E+04-2.04466E+04 4.02800E+04 1.12274E+04-4.05233E+04
 -1       126-1.63961E+06 3.38632E+04 6.59079E+04-2.49455E+05-1.18362E+04 4.29793E+05
 -1       127-1.64661E+06 6.61040E+04 3.37082E+04-4.23655E+05-1.16467E+04 2.52911E+05
 -1       128 5.48872E+04 2.51957E+04-2.67638E+04-5.09898E+05 2.05527E+02 5.15809E+05
 -1       129-4.11172E+06 7.59995E+04 4.67250E+04-4.36007E+05 1.29117E+04 9.99138E+05
 -1       130 3.40418E+04 2.81062E+04-2.83995E+04 4.46621E+04 1.47626E+02-4.59981E+04
 -1       131-2.54117E+06 2.28461E+04-4.05076E+02 1.03533E+05 1.09550E+04 3.36860E+05
 -1       132 2.08155E+06-4.50494E+04-6.96405E+04-7.70943E+05-1.22771E+04 4.45108E+05
 -1       133-1.99889E+06 6.85705E+04 4.43795E+04-4.39423E+05 1.24872E+04 7.80473E+05
 -1       134-2.07814E+06 8.91853E+03 8.62486E+03-6.61470E+05-8.81214E+02 9.14025E+05
 -1       135-8.27415E+06 1.18022E+05 1.18367E+05-4.42094E+05 3.09828E+04 4.48898E+05
 -1       136-5.13174E+06 2.19176E+04 2.22924E+04 1.00400E+05 2.22544E+04-1.01002E+05
 -1       137-6.21717E+06 8.01889E+04 5.01977E+04-4.25601E+05 1.59172E+04 7.23441E+05
 -1       138-6.24424E+06 5.07910E+04 8.11057E+04-7.13149E+05 1.57529E+04 4.31469E+05
 -1       139 1.12986E+05-1.81254E+05 1.87864E+05-6.36279E+05-8.15681E+02 6.43356E+05
 -1       140-8.53063E+06-3.52863E+05-1.83645E+05-5.13163E+05-7.32129E+04 1.24636E+06
 -1       141 8.30016E+04-4.22593E+04 4.37120E+04 5.29409E+04-3.24153E+02-5.46927E+04
 -1       142-6.20213E+06-8.30306E+04-3.25710E+04 1.31017E+05-2.32119E+04 4.70050E+05
 -1       143 4.40393E+06 8.34106E+04 3.06317E+05-9.61761E+05 7.25181E+04 5.29616E+05
 -1       144-4.23428E+06-3.01071E+05-7.99410E+04-5.22983E+05-7.33133E+04 9.73776E+05
 -1       145-4.23481E+06-7.67684E+04-5.15852E+04-8.06140E+05-4.11728E+03 1.11661E+06
 -1       146-1.70324E+07-4.97012E+05-4.99460E+05-5.29186E+05-1.22962E+05 5.37675E+05
 -1       147-1.25123E+07-1.09210E+05-1.09780E+05 1.31682E+05-4.88655E+04-1.32396E+05
 -1       148-1.27592E+07-3.93434E+05-2.60980E+05-4.96458E+05-6.04208E+04 9.12019E+05
 -1       149-1.28165E+07-2.62064E+05-3.97463E+05-8.99179E+05-5.94534E+04 5.03440E+05
 -1       150 1.83670E+05 6.52446E+05-6.42528E+05-6.81012E+05 5.14960E+03 6.82870E+05
 -1       151-1.39338E+07-6.44658E+04-7.80244E+05-6.33709E+04 3.72473E+05 1.34685E+06
 -1       152 1.40926E+05 2.35864E+05-2.44364E+05 1.06146E+05 1.19076E+03-1.08368E+05
 -1       153-1.04752E+07 4.57209E+05 2.12373E+05 1.60440E+05 9.43275E+04 5.36114E+05
 -1       154 6.88405E+06 2.63035E+04-5.76898E+05-9.37325E+05-3.43960E+05 3.69737E+05
 -1       155-6.60357E+06 5.86206E+05-6.77720E+03-3.68274E+05 3.49352E+05 9.47685E+05
 -1       156-7.24343E+06-7.23464E+05-6.79541E+05-4.91117E+05 1.33360E+04 1.15408E+06
 -1       157-2.76880E+07-7.51842E+05-7.43251E+05-1.35472E+05 7.76293E+05 1.44519E+05
 -1       158-2.12444E+07 6.39070E+05 6.42255E+05 1.66787E+05 1.79505E+05-1.68210E+05
 -1       159-2.10960E+07-7.05439E+05-1.47167E+06-1.07846E+05 4.08750E+05 7.87127E+05
 -1       160-2.11855E+07-1.47189E+06-6.97723E+05-7.74623E+05 4.04151E+05 1.12742E+05
 -1       161 2.75181E+05 1.17931E+05 1.17942E+05 1.10983E+06-2.58572E-02-1.08172E+06
 -1       162-2.00630E+07-8.59853E+06-8.59852E+06-1.26658E+06-1.93576E+00-3.20547E+05
 -1       163 1.97931E+05-8.78680E+05 8.78560E+05 9.18827E+04-6.50349E+03-8.68054E+04
 -1       164-1.49412E+07-4.52470E+05 3.84110E+05-4.46614E+05-5.02530E+05 3.43516E+05
 -1       165 1.03888E+07 4.45235E+06 4.45236E+06 7.76888E+05 2.59562E+00 1.65249E+05
 -1       166-9.98055E+06-4.27738E+06-4.27738E+06-1.41887E+05-2.65618E+00-7.65809E+05
 -1       167-9.96107E+06-4.26890E+06-4.26890E+06-7.87760E+05-9.44373E-01 1.26335E+05
 -1       168-4.14831E+07-1.77787E+07-1.77787E+07-2.12577E+06-3.89793E+00 2.11123E+06
 -1       169-2.98377E+07 1.48795E+04 3.22269E+03-3.83290E+05-9.80390E+05 3.82105E+05
 -1       170-3.07063E+07-1.31596E+07-1.31596E+07-1.75985E+06-4.58171E+00 8.29994E+05
 -1       171-3.08414E+07-1.32175E+07-1.32175E+07-8.40228E+05-4.54688E+00 1.76189E+06
 -3
    1PSTEP                         3           1           1          
    1PGM                1.000000E+00                                  
    1PGK                2.698106E+03                                  
    1PHID                         -1                                  
    1PSUBC                         0                                  
    1PMODE                         2                                  
  100CL  102 8.26703E+00         171                     2    2MODAL      1
 -4  DISP        4    1
 -5  D1          1    2    1    0
 -5  D2          1    2    2    0
 -5  D3          1    2    3    0
 -5  ALL         1    2    0    0    1ALL
 -1         1-4.63521E-06 5.09803E-03 5.03083E-03
 -1         2 3.47071E-04 5.09802E-03 5.03089E-03
 -1         3-9.21572E-19 5.09805E-03 5.03086E-03
 -1         4-3.51706E-04 5.09808E-03 5.03083E-03
 -1         5-4.58126E-06 3.69267E-03 3.64398E-03
 -1         6 3.43112E-04 3.69311E-03 3.64535E-03
 -1         7 5.28549E-18 3.69357E-03 3.64489E-03
 -1         8-3.47695E-04 3.69403E-03 3.64443E-03
 -1         9 1.71230E-04 5.09803E-03 5.03085E-03
 -1        10 1.73528E-04 5.09802E-03 5.03088E-03
 -1        11-1.75845E-04 5.09807E-03 5.03083E-03
 -1        12-1.78183E-04 5.09804E-03 5.03084E-03
 -1        13-4.62402E-06 4.39414E-03 4.33622E-03
 -1        14 3.46268E-04 4.39425E-03 4.33663E-03
 -1        15-7.58942E-19 4.39440E-03 4.33648E-03
 -1        16-3.50892E-04 4.39455E-03 4.33633E-03
 -1        17 1.69537E-04 3.69280E-03 3.64475E-03
 -1        18 1.71374E-04 3.69343E-03 3.64503E-03
 -1        19-1.73663E-04 3.69371E-03 3.64475E-03
 -1        20-1.76407E-04 3.69344E-03 3.64412E-03
 -1        21-3.47071E-04 5.09802E-03 5.03089E-03
 -1        22-6.98750E-04 5.09809E-03 5.03090E-03
 -1        23-3.43112E-04 3.69311E-03 3.64535E-03
 -1        24-6.90617E-04 3.69448E-03 3.64581E-03
 -1        25-1.73528E-04 5.09802E-03 5.03088E-03
 -1        26-5.22902E-04 5.09806E-03 5.03089E-03
 -1        27-5.25220E-04 5.09808E-03 5.03087E-03
 -1        28-3.46268E-04 4.39425E-03 4.33663E-03
 -1        29-6.97064E-04 4.39468E-03 4.33676E-03
 -1        30-1.71374E-04 3.69343E-03 3.64503E-03
 -1        31-5.16687E-04 3.69370E-03 3.64567E-03
 -1        32-5.18982E-04 3.69435E-03 3.64503E-03
 -1        33-4.23997E-06 2.33650E-03 2.30562E-03
 -1        34 3.17634E-04 2.33806E-03 2.31039E-03
 -1        35 4.11997E-18 2.33965E-03 2.30881E-03
 -1        36-3.21876E-04 2.34124E-03 2.30724E-03
 -1        37-4.45167E-06 3.00223E-03 2.96261E-03
 -1        38 3.33442E-04 3.00313E-03 2.96546E-03
 -1        39 5.71917E-18 3.00410E-03 2.96451E-03
 -1        40-3.37895E-04 3.00507E-03 2.96355E-03
 -1        41 1.57150E-04 2.33686E-03 2.30842E-03
 -1        42 1.58514E-04 2.33927E-03 2.30918E-03
 -1        43-1.60631E-04 2.34002E-03 2.30844E-03
 -1        44-1.63508E-04 2.33929E-03 2.30602E-03
 -1        45-3.17634E-04 2.33806E-03 2.31039E-03
 -1        46-6.39169E-04 2.34279E-03 2.31199E-03
 -1        47-3.33442E-04 3.00313E-03 2.96546E-03
 -1        48-6.71082E-04 3.00600E-03 2.96643E-03
 -1        49-1.58514E-04 2.33927E-03 2.30918E-03
 -1        50-4.78110E-04 2.34000E-03 2.31161E-03
 -1        51-4.80237E-04 2.34244E-03 2.30920E-03
 -1        52-3.41434E-06 1.15073E-03 1.13540E-03
 -1        53 2.55961E-04 1.15393E-03 1.14483E-03
 -1        54 5.14996E-19 1.15705E-03 1.14180E-03
 -1        55-2.59380E-04 1.16012E-03 1.13872E-03
 -1        56-3.88315E-06 1.71266E-03 1.68997E-03
 -1        57 2.90911E-04 1.71492E-03 1.69697E-03
 -1        58 2.27344E-18 1.71728E-03 1.69465E-03
 -1        59-2.94797E-04 1.71963E-03 1.69232E-03
 -1        60 1.26822E-04 1.15166E-03 1.14077E-03
 -1        61 1.27619E-04 1.15617E-03 1.14266E-03
 -1        62-1.29323E-04 1.15792E-03 1.14093E-03
 -1        63-1.31941E-04 1.15609E-03 1.13640E-03
 -1        64-2.55961E-04 1.15393E-03 1.14483E-03
 -1        65-5.14705E-04 1.16314E-03 1.14798E-03
 -1        66-2.90911E-04 1.71492E-03 1.69697E-03
 -1        67-5.85378E-04 1.72193E-03 1.69936E-03
 -1        68-1.27619E-04 1.15617E-03 1.14266E-03
 -1        69-3.84973E-04 1.15786E-03 1.14707E-03
 -1        70-3.86689E-04 1.16231E-03 1.14269E-03
 -1        71-1.97961E-06 3.05150E-04 3.00901E-04
 -1        72 1.49203E-04 3.09647E-04 3.14071E-04
 -1        73 3.38813E-19 3.14077E-04 3.09938E-04
 -1        74-1.51196E-04 3.18266E-04 3.05565E-04
 -1        75-2.76304E-06 6.73321E-04 6.64233E-04
 -1        76 2.06954E-04 6.77133E-04 6.76403E-04
 -1        77-9.48677E-20 6.81228E-04 6.72249E-04
 -1        78-2.09718E-04 6.85437E-04 6.68209E-04
 -1        79 7.42542E-05 3.05716E-04 3.09137E-04
 -1        80 7.40745E-05 3.13536E-04 3.10319E-04
 -1        81-7.50638E-05 3.14464E-04 3.09404E-04
 -1        82-7.72235E-05 3.13381E-04 3.01573E-04
 -1        83-1.49203E-04 3.09647E-04 3.14071E-04
 -1        84-2.98423E-04 3.22318E-04 3.18298E-04
 -1        85-2.06954E-04 6.77133E-04 6.76403E-04
 -1        86-4.16523E-04 6.89449E-04 6.80576E-04
 -1        87-7.40745E-05 3.13536E-04 3.10319E-04
 -1        88-2.23308E-04 3.14282E-04 3.17839E-04
 -1        89-2.24313E-04 3.21969E-04 3.10254E-04
 -1        90 0.00000E+00 0.00000E+00 0.00000E+00
 -1        91 0.00000E+00 0.00000E+00 0.00000E+00
 -1        92 0.00000E+00 0.00000E+00 0.00000E+00
 -1        93 0.00000E+00 0.00000E+00 0.00000E+00
 -1        94-1.00596E-06 6.92565E-05 6.80115E-05
 -1        95 7.45610E-05 7.53282E-05 8.67507E-05
 -1        96 2.43945E-19 8.14078E-05 8.03349E-05
 -1        97-7.55568E-05 8.79093E-05 7.43354E-05
 -1        98 0.00000E+00 0.00000E+00 0.00000E+00
 -1        99 0.00000E+00 0.00000E+00 0.00000E+00
 -1       100 0.00000E+00 0.00000E+00 0.00000E+00
 -1       101 0.00000E+00 0.00000E+00 0.00000E+00
 -1       102 0.00000E+00 0.00000E+00 0.00000E+00
 -1       103 0.00000E+00 0.00000E+00 0.00000E+00
 -1       104-7.45610E-05 7.53282E-05 8.67507E-05
 -1       105-1.51647E-04 9.43026E-05 9.33920E-05
 -1       106 0.00000E+00 0.00000E+00 0.00000E+00
 -1       107 0.00000E+00 0.00000E+00 0.00000E+00
 -1       108 0.00000E+00 0.00000E+00 0.00000E+00
 -1       109 6.98750E-04 5.09809E-03 5.03090E-03
 -1       110 3.51706E-04 5.09808E-03 5.03083E-03
 -1       111 6.90617E-04 3.69448E-03 3.64581E-03
 -1       112 3.47695E-04 3.69403E-03 3.64443E-03
 -1       113 5.22902E-04 5.09806E-03 5.03089E-03
 -1       114 5.25220E-04 5.09808E-03 5.03087E-03
 -1       115 1.75845E-04 5.09807E-03 5.03083E-03
 -1       116 6.97064E-04 4.39468E-03 4.33676E-03
 -1       117 3.50892E-04 4.39455E-03 4.33633E-03
 -1       118 5.16687E-04 3.69370E-03 3.64567E-03
 -1       119 5.18982E-04 3.69435E-03 3.64503E-03
 -1       120 1.73663E-04 3.69371E-03 3.64475E-03
 -1       121 4.63521E-06 5.09803E-03 5.03083E-03
 -1       122 4.58126E-06 3.69267E-03 3.64398E-03
 -1       123 1.78183E-04 5.09804E-03 5.03084E-03
 -1       124-1.71230E-04 5.09803E-03 5.03085E-03
 -1       125 4.62402E-06 4.39414E-03 4.33622E-03
 -1       126 1.76407E-04 3.69344E-03 3.64412E-03
 -1       127-1.69537E-04 3.69280E-03 3.64475E-03
 -1       128 6.39169E-04 2.34279E-03 2.31199E-03
 -1       129 3.21876E-04 2.34124E-03 2.30724E-03
 -1       130 6.71082E-04 3.00600E-03 2.96643E-03
 -1       131 3.37895E-04 3.00507E-03 2.96355E-03
 -1       132 4.78110E-04 2.34000E-03 2.31161E-03
 -1       133 4.80237E-04 2.34244E-03 2.30920E-03
 -1       134 1.60631E-04 2.34002E-03 2.30844E-03
 -1       135 4.23997E-06 2.33650E-03 2.30562E-03
 -1       136 4.45167E-06 3.00223E-03 2.96261E-03
 -1       137 1.63508E-04 2.33929E-03 2.30602E-03
 -1       138-1.57150E-04 2.33686E-03 2.30842E-03
 -1       139 5.14705E-04 1.16314E-03 1.14798E-03
 -1       140 2.59380E-04 1.16012E-03 1.13872E-03
 -1       141 5.85378E-04 1.72193E-03 1.69936E-03
 -1       142 2.94797E-04 1.71963E-03 1.69232E-03
 -1       143 3.84973E-04 1.15786E-03 1.14707E-03
 -1       144 3.86689E-04 1.16231E-03 1.14269E-03
 -1       145 1.29323E-04 1.15792E-03 1.14093E-03
 -1       146 3.41434E-06 1.15073E-03 1.13540E-03
 -1       147 3.88315E-06 1.71266E-03 1.68997E-03
 -1       148 1.31941E-04 1.15609E-03 1.13640E-03
 -1       149-1.26822E-04 1.15166E-03 1.14077E-03
 -1       150 2.98423E-04 3.22318E-04 3.18298E-04
 -1       151 1.51196E-04 3.18266E-04 3.05565E-04
 -1       152 4.16523E-04 6.89449E-04 6.80576E-04
 -1       153 2.09718E-04 6.85437E-04 6.68209E-04
 -1       154 2.23308E-04 3.14282E-04 3.17839E-04
 -1       155 2.24313E-04 3.21969E-04 3.10254E-04
 -1       156 7.50638E-05 3.14464E-04 3.09404E-04
 -1       157 1.97961E-06 3.05150E-04 3.00901E-04
 -1       158 2.76304E-06 6.73321E-04 6.64233E-04
 -1       159 7.72235E-05 3.13381E-04 3.01573E-04
 -1       160-7.42542E-05 3.05716E-04 3.09137E-04
 -1       161 0.00000E+00 0.00000E+00 0.00000E+00
 -1       162 0.00000E+00 0.00000E+00 0.00000E+00
 -1       163 1.51647E-04 9.43026E-05 9.33920E-05
 -1       164 7.55568E-05 8.79093E-05 7.43354E-05
 -1       165 0.00000E+00 0.00000E+00 0.00000E+00
 -1       166 0.00000E+00 0.00000E+00 0.00000E+00
 -1       167 0.00000E+00 0.00000E+00 0.00000E+00
 -1       168 0.00000E+00 0.00000E+00 0.00000E+00
 -1       169 1.00596E-06 6.92565E-05 6.80115E-05
 -1       170 0.00000E+00 0.00000E+00 0.00000E+00
 -1       171 0.00000E+00 0.00000E+00 0.00000E+00
 -3
    1PSTEP                         4           1           1          
    1PGM                1.000000E+00                                  
    1PGK                2.698106E+03                                  
    1PHID                         -1                                  
    1PSUBC                         0                                  
    1PMODE                         2                                  
  100CL  102 8.26703E+00         171                     2    2MODAL      1
 -4  STRESS      6    1
 -5  SXX         1    4    1    1
 -5  SYY         1    4    2    2
 -5  SZZ         1    4    3    3
 -5  SXY         1    4    1    2
 -5  SYZ         1    4    2    3
 -5  SZX         1    4    3    1
 -1         1 1.32657E+03-8.12819E+03 9.47986E+03 1.21361E+05-8.29548E+01 1.19743E+05
 -1         2-1.05817E+05-5.97581E+04-4.39351E+04 1.36498E+05-7.29903E+03 1.18931E+05
 -1         3-3.12689E-06-4.88468E-06-7.40696E-06 1.31833E+05 7.99457E-07 1.30096E+05
 -1         4 1.07230E+05 4.45219E+04 6.05562E+04 1.20520E+05 7.20283E+03 1.34699E+05
 -1         5-1.45156E+04-2.52437E+04 2.58845E+04 3.05969E+05-1.65358E+02 3.02507E+05
 -1         6 1.07830E+06-4.04613E+04-9.47973E+03 5.94141E+05-1.41603E+04 2.58242E+05
 -1         7 1.02191E-06-3.55338E-06 1.03991E-05 5.21872E+05-4.24285E-07 5.14994E+05
 -1         8-1.09270E+06 9.60634E+03 4.10017E+04 2.61690E+05 1.39737E+04 5.86310E+05
 -1         9-7.60428E+04-2.51484E+04-1.90299E+04 1.32380E+05-8.10793E+03 1.14886E+05
 -1        10-3.90411E+04-3.05358E+04-3.32375E+04 1.29990E+05 7.84444E+02 1.28296E+05
 -1        11 3.95625E+04 3.36814E+04 3.09436E+04 1.30009E+05-7.74105E+02 1.28277E+05
 -1        12 7.79021E+04 1.99991E+04 2.63884E+04 1.16439E+05 8.04054E+03 1.30616E+05
 -1        13-5.47665E+03 1.58745E+04-1.61472E+04-1.86066E+04 7.44777E+01-1.80706E+04
 -1        14 4.01657E+05 1.39464E+04 5.40922E+03 1.31210E+05 4.86604E+03-4.03674E+04
 -1        15-6.06325E-07 1.62222E-07-1.41791E-07 9.40274E+04 1.09469E-06 9.27882E+04
 -1        16-4.07021E+05-5.48147E+03-1.41326E+04-4.09065E+04-4.80191E+03 1.29481E+05
 -1        17 5.16514E+05-1.43430E+04 1.19084E+04 4.65479E+05-1.43613E+04 2.58847E+05
 -1        18 5.45780E+05-2.61806E+04-2.61363E+04 5.42493E+05 6.36840E+01 3.94855E+05
 -1        19-5.53069E+05 2.64854E+04 2.65302E+04 4.00129E+05-6.28447E+01 5.35343E+05
 -1        20-5.38313E+05-1.14602E+04 1.52187E+04 2.62180E+05 1.42055E+04 4.59817E+05
 -1        21 1.05817E+05 5.97581E+04 4.39351E+04 1.36498E+05 7.29903E+03 1.18931E+05
 -1        22 1.99978E+05 1.01822E+05 1.01939E+05 1.22750E+05 1.25053E+04 1.21151E+05
 -1        23-1.07830E+06 4.04613E+04 9.47973E+03 5.94141E+05 1.41603E+04 2.58242E+05
 -1        24-2.18820E+06 4.81327E+04 4.84718E+04 2.63017E+05 2.49274E+04 2.58981E+05
 -1        25 3.90411E+04 3.05358E+04 3.32375E+04 1.29990E+05-7.84444E+02 1.28296E+05
 -1        26 1.39629E+05 9.32917E+04 7.29189E+04 1.33878E+05 5.13278E+03 1.16251E+05
 -1        27 1.40651E+05 7.31778E+04 9.36336E+04 1.17785E+05 5.02565E+03 1.32134E+05
 -1        28-4.01657E+05-1.39464E+04-5.40922E+03 1.31210E+05-4.86604E+03-4.03674E+04
 -1        29-8.25596E+05-2.04466E+04-2.06590E+04-4.05233E+04-1.12274E+04-4.02800E+04
 -1        30-5.45780E+05 2.61806E+04 2.61363E+04 5.42493E+05-6.36840E+01 3.94855E+05
 -1        31-1.63961E+06 6.59079E+04 3.38632E+04 4.29793E+05 1.18362E+04 2.49455E+05
 -1        32-1.64661E+06 3.37082E+04 6.61040E+04 2.52911E+05 1.16467E+04 4.23655E+05
 -1        33-5.48872E+04 2.67638E+04-2.51957E+04 5.15809E+05 2.05527E+02 5.09898E+05
 -1        34 4.11172E+06-4.67250E+04-7.59995E+04 9.99138E+05 1.29117E+04 4.36007E+05
 -1        35 1.38140E-06 1.83692E-06 1.24701E-06 8.76463E+05 1.24913E-06 8.64911E+05
 -1        36-4.16663E+06 7.70146E+04 4.73491E+04 4.41830E+05-1.27415E+04 9.85969E+05
 -1        37-3.40418E+04 2.83995E+04-2.81062E+04-4.59981E+04 1.47626E+02-4.46621E+04
 -1        38 2.54117E+06 4.05076E+02-2.28461E+04 3.36860E+05 1.09550E+04-1.03533E+05
 -1        39 3.40567E-07-3.36124E-07 1.05468E-06 2.41468E+05 9.68416E-07 2.38286E+05
 -1        40-2.57510E+06 2.31512E+04-4.10486E+02-1.04916E+05-1.08106E+04 3.32420E+05
 -1        41 1.99889E+06-4.43795E+04-6.85705E+04 7.80473E+05 1.24872E+04 4.39423E+05
 -1        42 2.07814E+06-8.62486E+03-8.91853E+03 9.14025E+05-8.81214E+02 6.61470E+05
 -1        43-2.10589E+06 9.03764E+03 8.74006E+03 6.70304E+05 8.69600E+02 9.01978E+05
 -1        44-2.08155E+06 6.96405E+04 4.50494E+04 4.45108E+05-1.22771E+04 7.70943E+05
 -1        45-4.11172E+06 4.67250E+04 7.59995E+04 9.99138E+05-1.29117E+04 4.36007E+05
 -1        46-8.27415E+06 1.18367E+05 1.18022E+05 4.48898E+05-3.09828E+04 4.42094E+05
 -1        47-2.54117E+06-4.05076E+02 2.28461E+04 3.36860E+05-1.09550E+04-1.03533E+05
 -1        48-5.13174E+06 2.22924E+04 2.19176E+04-1.01002E+05-2.22544E+04-1.00400E+05
 -1        49-2.07814E+06 8.62486E+03 8.91853E+03 9.14025E+05 8.81214E+02 6.61470E+05
 -1        50-6.21717E+06 5.01977E+04 8.01889E+04 7.23441E+05-1.59172E+04 4.25601E+05
 -1        51-6.24424E+06 8.11057E+04 5.07910E+04 4.31469E+05-1.57529E+04 7.13149E+05
 -1        52-1.12986E+05-1.87864E+05 1.81254E+05 6.43356E+05-8.15681E+02 6.36279E+05
 -1        53 8.53063E+06 1.83645E+05 3.52863E+05 1.24636E+06-7.32129E+04 5.13163E+05
 -1        54-3.74159E-07-2.11647E-06-7.48350E-08 1.06425E+06 6.87792E-07 1.05023E+06
 -1        55-8.64456E+06-3.57576E+05-1.86098E+05 5.20017E+05 7.22480E+04 1.22993E+06
 -1        56-8.30016E+04-4.37120E+04 4.22593E+04-5.46927E+04-3.24153E+02-5.29409E+04
 -1        57 6.20213E+06 3.25710E+04 8.30306E+04 4.70050E+05-2.32119E+04-1.31017E+05
 -1        58 9.46429E-07 1.26553E-06 6.69728E-07 3.38490E+05 7.71110E-07 3.34029E+05
 -1        59-6.28496E+06-8.41396E+04-3.30060E+04-1.32767E+05 2.29060E+04 4.63855E+05
 -1        60 4.23428E+06 7.99410E+04 3.01071E+05 9.73776E+05-7.33133E+04 5.22983E+05
 -1        61 4.23481E+06 5.15852E+04 7.67684E+04 1.11661E+06-4.11728E+03 8.06140E+05
 -1        62-4.29137E+06-7.77937E+04-5.22742E+04 8.16907E+05 4.06301E+03 1.10189E+06
 -1        63-4.40393E+06-3.06317E+05-8.34106E+04 5.29616E+05 7.25181E+04 9.61761E+05
 -1        64-8.53063E+06-1.83645E+05-3.52863E+05 1.24636E+06 7.32129E+04 5.13163E+05
 -1        65-1.70324E+07-4.99460E+05-4.97012E+05 5.37675E+05 1.22962E+05 5.29186E+05
 -1        66-6.20213E+06-3.25710E+04-8.30306E+04 4.70050E+05 2.32119E+04-1.31017E+05
 -1        67-1.25123E+07-1.09780E+05-1.09210E+05-1.32396E+05 4.88655E+04-1.31682E+05
 -1        68-4.23481E+06-5.15852E+04-7.67684E+04 1.11661E+06 4.11728E+03 8.06140E+05
 -1        69-1.27592E+07-2.60980E+05-3.93434E+05 9.12019E+05 6.04208E+04 4.96458E+05
 -1        70-1.28165E+07-3.97463E+05-2.62064E+05 5.03440E+05 5.94534E+04 8.99179E+05
 -1        71-1.83670E+05 6.42528E+05-6.52446E+05 6.82870E+05 5.14960E+03 6.81012E+05
 -1        72 1.39338E+07 7.80244E+05 6.44658E+04 1.34685E+06 3.72473E+05 6.33709E+04
 -1        73 1.01543E-07 6.60366E-08 5.70726E-07 9.56692E+05-2.26656E-07 9.44083E+05
 -1        74-1.41199E+07-6.53268E+04-7.90665E+05 6.42173E+04-3.67564E+05 1.32909E+06
 -1        75-1.40926E+05 2.44364E+05-2.35864E+05-1.08368E+05 1.19076E+03-1.06146E+05
 -1        76 1.04752E+07-2.12373E+05-4.57209E+05 5.36114E+05 9.43275E+04-1.60440E+05
 -1        77-3.81026E-07-7.42737E-07-6.10009E-07 4.34930E+05-1.44095E-07 4.29198E+05
 -1        78-1.06151E+07 4.63315E+05 2.15209E+05-1.62583E+05-9.30843E+04 5.29049E+05
 -1        79 6.60357E+06 6.77720E+03-5.86206E+05 9.47685E+05 3.49352E+05 3.68274E+05
 -1        80 7.24343E+06 6.79541E+05 7.23464E+05 1.15408E+06 1.33360E+04 4.91117E+05
 -1        81-7.34018E+06-7.33126E+05-6.88616E+05 4.97676E+05-1.31602E+04 1.13887E+06
 -1        82-6.88405E+06 5.76898E+05-2.63035E+04 3.69737E+05-3.43960E+05 9.37325E+05
 -1        83-1.39338E+07-7.80244E+05-6.44658E+04 1.34685E+06-3.72473E+05 6.33709E+04
 -1        84-2.76880E+07-7.43251E+05-7.51842E+05 1.44519E+05-7.76293E+05 1.35472E+05
 -1        85-1.04752E+07 2.12373E+05 4.57209E+05 5.36114E+05-9.43275E+04-1.60440E+05
 -1        86-2.12444E+07 6.42255E+05 6.39070E+05-1.68210E+05-1.79505E+05-1.66787E+05
 -1        87-7.24343E+06-6.79541E+05-7.23464E+05 1.15408E+06-1.33360E+04 4.91117E+05
 -1        88-2.10960E+07-1.47167E+06-7.05439E+05 7.87127E+05-4.08750E+05 1.07846E+05
 -1        89-2.11855E+07-6.97723E+05-1.47189E+06 1.12742E+05-4.04151E+05 7.74623E+05
 -1        90-2.75181E+05-1.17942E+05-1.17931E+05-1.08172E+06-2.58572E-02-1.10983E+06
 -1        91 2.00630E+07 8.59852E+06 8.59853E+06-3.20547E+05-1.93576E+00 1.26658E+06
 -1        92 8.08686E-08 1.25419E-08 3.49828E-08 4.44359E+05-8.51624E-09 4.38502E+05
 -1        93-2.03309E+07-8.71337E+06-8.71336E+06 1.28350E+06 1.91025E+00-3.16322E+05
 -1        94-1.97931E+05-8.78560E+05 8.78680E+05-8.68054E+04-6.50349E+03-9.18827E+04
 -1        95 1.49412E+07-3.84110E+05 4.52470E+05 3.43516E+05-5.02530E+05 4.46614E+05
 -1        96 6.06678E-08 3.66999E-08 5.19212E-08 6.20106E+05 3.63182E-08 6.11933E+05
 -1        97-1.51408E+07-4.58513E+05 3.89240E+05 4.52579E+05 4.95907E+05 3.38989E+05
 -1        98 9.98055E+06 4.27738E+06 4.27738E+06-7.65809E+05-2.65618E+00 1.41887E+05
 -1        99 9.96107E+06 4.26890E+06 4.26890E+06 1.26335E+05-9.44373E-01 7.87760E+05
 -1       100-1.00941E+07-4.32592E+06-4.32592E+06 7.98281E+05 9.31926E-01 1.24670E+05
 -1       101-1.03888E+07-4.45236E+06-4.45235E+06 1.65249E+05 2.59562E+00-7.76888E+05
 -1       102-2.00630E+07-8.59852E+06-8.59853E+06-3.20547E+05 1.93576E+00 1.26658E+06
 -1       103-4.14831E+07-1.77787E+07-1.77787E+07 2.11123E+06 3.89793E+00 2.12577E+06
 -1       104-1.49412E+07 3.84110E+05-4.52470E+05 3.43516E+05 5.02530E+05 4.46614E+05
 -1       105-2.98377E+07 3.22269E+03 1.48795E+04 3.82105E+05 9.80390E+05 3.83290E+05
 -1       106-9.96107E+06-4.26890E+06-4.26890E+06 1.26335E+05 9.44373E-01 7.87760E+05
 -1       107-3.07063E+07-1.31596E+07-1.31596E+07 8.29994E+05 4.58171E+00 1.75985E+06
 -1       108-3.08414E+07-1.32175E+07-1.32175E+07 1.76189E+06 4.54688E+00 8.40228E+05
 -1       109-1.99978E+05-1.01822E+05-1.01939E+05 1.22750E+05-1.25053E+04 1.21151E+05
 -1       110-1.07230E+05-4.45219E+04-6.05562E+04 1.20520E+05-7.20283E+03 1.34699E+05
 -1       111 2.18820E+06-4.81327E+04-4.84718E+04 2.63017E+05-2.49274E+04 2.58981E+05
 -1       112 1.09270E+06-9.60634E+03-4.10017E+04 2.61690E+05-1.39737E+04 5.86310E+05
 -1       113-1.39629E+05-9.32917E+04-7.29189E+04 1.33878E+05-5.13278E+03 1.16251E+05
 -1       114-1.40651E+05-7.31778E+04-9.36336E+04 1.17785E+05-5.02565E+03 1.32134E+05
 -1       115-3.95625E+04-3.36814E+04-3.09436E+04 1.30009E+05 7.74105E+02 1.28277E+05
 -1       116 8.25596E+05 2.04466E+04 2.06590E+04-4.05233E+04 1.12274E+04-4.02800E+04
 -1       117 4.07021E+05 5.48147E+03 1.41326E+04-4.09065E+04 4.80191E+03 1.29481E+05
 -1       118 1.63961E+06-6.59079E+04-3.38632E+04 4.29793E+05-1.18362E+04 2.49455E+05
 -1       119 1.64661E+06-3.37082E+04-6.61040E+04 2.52911E+05-1.16467E+04 4.23655E+05
 -1       120 5.53069E+05-2.64854E+04-2.65302E+04 4.00129E+05 6.28447E+01 5.35343E+05
 -1       121-1.32657E+03 8.12819E+03-9.47986E+03 1.21361E+05 8.29548E+01 1.19743E+05
 -1       122 1.45156E+04 2.52437E+04-2.58845E+04 3.05969E+05 1.65358E+02 3.02507E+05
 -1       123-7.79021E+04-1.99991E+04-2.63884E+04 1.16439E+05-8.04054E+03 1.30616E+05
 -1       124 7.60428E+04 2.51484E+04 1.90299E+04 1.32380E+05 8.10793E+03 1.14886E+05
 -1       125 5.47665E+03-1.58745E+04 1.61472E+04-1.86066E+04-7.44777E+01-1.80706E+04
 -1       126 5.38313E+05 1.14602E+04-1.52187E+04 2.62180E+05-1.42055E+04 4.59817E+05
 -1       127-5.16514E+05 1.43430E+04-1.19084E+04 4.65479E+05 1.43613E+04 2.58847E+05
 -1       128 8.27415E+06-1.18367E+05-1.18022E+05 4.48898E+05 3.09828E+04 4.42094E+05
 -1       129 4.16663E+06-7.70146E+04-4.73491E+04 4.41830E+05 1.27415E+04 9.85969E+05
 -1       130 5.13174E+06-2.22924E+04-2.19176E+04-1.01002E+05 2.22544E+04-1.00400E+05
 -1       131 2.57510E+06-2.31512E+04 4.10486E+02-1.04916E+05 1.08106E+04 3.32420E+05
 -1       132 6.21717E+06-5.01977E+04-8.01889E+04 7.23441E+05 1.59172E+04 4.25601E+05
 -1       133 6.24424E+06-8.11057E+04-5.07910E+04 4.31469E+05 1.57529E+04 7.13149E+05
 -1       134 2.10589E+06-9.03764E+03-8.74006E+03 6.70304E+05-8.69600E+02 9.01978E+05
 -1       135 5.48872E+04-2.67638E+04 2.51957E+04 5.15809E+05-2.05527E+02 5.09898E+05
 -1       136 3.40418E+04-2.83995E+04 2.81062E+04-4.59981E+04-1.47626E+02-4.46621E+04
 -1       137 2.08155E+06-6.96405E+04-4.50494E+04 4.45108E+05 1.22771E+04 7.70943E+05
 -1       138-1.99889E+06 4.43795E+04 6.85705E+04 7.80473E+05-1.24872E+04 4.39423E+05
 -1       139 1.70324E+07 4.99460E+05 4.97012E+05 5.37675E+05-1.22962E+05 5.29186E+05
 -1       140 8.64456E+06 3.57576E+05 1.86098E+05 5.20017E+05-7.22480E+04 1.22993E+06
 -1       141 1.25123E+07 1.09780E+05 1.09210E+05-1.32396E+05-4.88655E+04-1.31682E+05
 -1       142 6.28496E+06 8.41396E+04 3.30060E+04-1.32767E+05-2.29060E+04 4.63855E+05
 -1       143 1.27592E+07 2.60980E+05 3.93434E+05 9.12019E+05-6.04208E+04 4.96458E+05
 -1       144 1.28165E+07 3.97463E+05 2.62064E+05 5.03440E+05-5.94534E+04 8.99179E+05
 -1       145 4.29137E+06 7.77937E+04 5.22742E+04 8.16907E+05-4.06301E+03 1.10189E+06
 -1       146 1.12986E+05 1.87864E+05-1.81254E+05 6.43356E+05 8.15681E+02 6.36279E+05
 -1       147 8.30016E+04 4.37120E+04-4.22593E+04-5.46927E+04 3.24153E+02-5.29409E+04
 -1       148 4.40393E+06 3.06317E+05 8.34106E+04 5.29616E+05-7.25181E+04 9.61761E+05
 -1       149-4.23428E+06-7.99410E+04-3.01071E+05 9.73776E+05 7.33133E+04 5.22983E+05
 -1       150 2.76880E+07 7.43251E+05 7.51842E+05 1.44519E+05 7.76293E+05 1.35472E+05
 -1       151 1.41199E+07 6.53268E+04 7.90665E+05 6.42173E+04 3.67564E+05 1.32909E+06
 -1       152 2.12444E+07-6.42255E+05-6.39070E+05-1.68210E+05 1.79505E+05-1.66787E+05
 -1       153 1.06151E+07-4.63315E+05-2.15209E+05-1.62583E+05 9.30843E+04 5.29049E+05
 -1       154 2.10960E+07 1.47167E+06 7.05439E+05 7.87127E+05 4.08750E+05 1.07846E+05
 -1       155 2.11855E+07 6.97723E+05 1.47189E+06 1.12742E+05 4.04151E+05 7.74623E+05
 -1       156 7.34018E+06 7.33126E+05 6.88616E+05 4.97676E+05 1.31602E+04 1.13887E+06
 -1       157 1.83670E+05-6.42528E+05 6.52446E+05 6.82870E+05-5.14960E+03 6.81012E+05
 -1       158 1.40926E+05-2.44364E+05 2.35864E+05-1.08368E+05-1.19076E+03-1.06146E+05
 -1       159 6.88405E+06-5.76898E+05 2.63035E+04 3.69737E+05 3.43960E+05 9.37325E+05
 -1       160-6.60357E+06-6.77720E+03 5.86206E+05 9.47685E+05-3.49352E+05 3.68274E+05
 -1       161 4.14831E+07 1.77787E+07 1.77787E+07 2.11123E+06-3.89793E+00 2.12577E+06
 -1       162 2.03309E+07 8.71337E+06 8.71336E+06 1.28350E+06-1.91025E+00-3.16322E+05
 -1       163 2.98377E+07-3.22269E+03-1.48795E+04 3.82105E+05-9.80390E+05 3.83290E+05
 -1       164 1.51408E+07 4.58513E+05-3.89240E+05 4.52579E+05-4.95907E+05 3.38989E+05
 -1       165 3.07063E+07 1.31596E+07 1.31596E+07 8.29994E+05-4.58171E+00 1.75985E+06
 -1       166 3.08414E+07 1.32175E+07 1.32175E+07 1.76189E+06-4.54688E+00 8.40228E+05
 -1       167 1.00941E+07 4.32592E+06 4.32592E+06 7.98281E+05-9.31926E-01 1.24670E+05
 -1       168 2.75181E+05 1.17942E+05 1.17931E+05-1.08172E+06 2.58572E-02-1.10983E+06
 -1       169 1.97931E+05 8.78560E+05-8.78680E+05-8.68054E+04 6.50349E+03-9.18827E+04
 -1       170 1.03888E+07 4.45236E+06 4.45235E+06 1.65249E+05-2.59562E+00-7.76888E+05
 -1       171-9.98055E+06-4.27738E+06-4.27738E+06-7.65809E+05 2.65618E+00 1.41887E+05
 -3
    1PSTEP                         5           1           1          
    1PGM                1.000000E+00                                  
    1PGK                9.893665E+04                                  
    1PHID                         -1                                  
    1PSUBC                         0                                  
    1PMODE                         3                                  
  100CL  103 5.00609E+01         171                     2    3MODAL      1
 -4  DISP        4    1
 -5  D1          1    2    1    0
 -5  D2          1    2    2    0
 -5  D3          1    2    3    0
 -5  ALL         1    2    0    0    1ALL
 -1         1 2.14102E-03-6.55545E-03 2.43072E-03
 -1         2 5.79091E-04-6.55280E-03 2.42924E-03
 -1         3 1.08420E-17-6.55430E-03 2.42866E-03
 -1         4 1.56281E-03-6.55587E-03 2.42810E-03
 -1         5 1.91166E-03-4.40241E-04 1.91447E-04
 -1         6 5.17879E-04-4.11448E-04 1.64705E-04
 -1         7 4.33681E-18-4.27957E-04 1.58577E-04
 -1         8 1.39762E-03-4.44494E-04 1.52460E-04
 -1         9 1.35895E-03-6.55465E-03 2.42990E-03
 -1        10 2.89183E-04-6.55315E-03 2.42916E-03
 -1        11 7.80427E-04-6.55566E-03 2.42824E-03
 -1        12 1.85166E-03-6.55520E-03 2.42965E-03
 -1        13 2.08651E-03-3.43029E-03 1.28098E-03
 -1        14 5.64762E-04-3.41963E-03 1.27163E-03
 -1        15 7.37257E-18-3.42567E-03 1.26936E-03
 -1        16 1.52414E-03-3.43179E-03 1.26713E-03
 -1        17 1.20829E-03-4.21797E-04 1.79599E-04
 -1        18 2.56787E-04-4.23765E-04 1.60144E-04
 -1        19 6.92998E-04-4.32186E-04 1.57024E-04
 -1        20 1.65357E-03-4.46421E-04 1.70454E-04
 -1        21-5.79091E-04-6.55280E-03 2.42924E-03
 -1        22 9.83316E-04-6.55405E-03 2.42694E-03
 -1        23-5.17879E-04-4.11448E-04 1.64705E-04
 -1        24 8.77976E-04-4.15914E-04 1.25797E-04
 -1        25-2.89183E-04-6.55315E-03 2.42916E-03
 -1        26 2.00865E-04-6.55391E-03 2.42780E-03
 -1        27 1.27368E-03-6.55442E-03 2.42765E-03
 -1        28-5.64762E-04-3.41963E-03 1.27163E-03
 -1        29 9.58278E-04-3.42178E-03 1.25802E-03
 -1        30-2.56787E-04-4.23765E-04 1.60144E-04
 -1        31 1.72418E-04-4.09633E-04 1.46725E-04
 -1        32 1.14196E-03-4.34240E-04 1.37628E-04
 -1        33 9.01600E-04 3.91467E-03-1.38847E-03
 -1        34 2.44147E-04 3.97699E-03-1.44713E-03
 -1        35 1.73472E-18 3.94128E-03-1.46042E-03
 -1        36 6.58887E-04 3.90542E-03-1.47365E-03
 -1        37 1.48073E-03 2.11571E-03-7.35645E-04
 -1        38 4.01175E-04 2.16385E-03-7.81277E-04
 -1        39 2.38524E-18 2.13607E-03-7.91508E-04
 -1        40 1.08266E-03 2.10845E-03-8.01805E-04
 -1        41 5.70201E-04 3.95519E-03-1.41444E-03
 -1        42 1.21192E-04 3.94986E-03-1.45726E-03
 -1        43 3.27065E-04 3.93275E-03-1.46360E-03
 -1        44 7.79766E-04 3.90071E-03-1.43454E-03
 -1        45-2.44147E-04 3.97699E-03-1.44713E-03
 -1        46 4.14081E-04 3.96800E-03-1.53241E-03
 -1        47-4.01175E-04 2.16385E-03-7.81277E-04
 -1        48 6.80060E-04 2.15722E-03-8.47666E-04
 -1        49-1.21192E-04 3.94986E-03-1.45726E-03
 -1        50 8.18541E-05 3.98185E-03-1.48619E-03
 -1        51 5.38151E-04 3.92730E-03-1.50648E-03
 -1        52-4.31846E-04 4.53042E-03-1.62564E-03
 -1        53-1.18058E-04 4.58425E-03-1.67586E-03
 -1        54 1.08420E-19 4.55381E-03-1.68739E-03
 -1        55-3.18605E-04 4.52269E-03-1.69867E-03
 -1        56 2.15001E-04 4.73183E-03-1.68915E-03
 -1        57 5.79241E-05 4.79539E-03-1.74975E-03
 -1        58 1.65341E-18 4.75870E-03-1.76331E-03
 -1        59 1.56322E-04 4.72211E-03-1.77691E-03
 -1        60-2.70050E-04 4.56661E-03-1.64758E-03
 -1        61-5.74261E-05 4.55995E-03-1.68509E-03
 -1        62-1.54978E-04 4.54761E-03-1.68967E-03
 -1        63-3.74358E-04 4.51735E-03-1.66561E-03
 -1        64 1.18058E-04 4.58425E-03-1.67586E-03
 -1        65-1.98335E-04 4.57601E-03-1.74870E-03
 -1        66-5.79241E-05 4.79539E-03-1.74975E-03
 -1        67 9.87442E-05 4.78699E-03-1.83800E-03
 -1        68 5.74261E-05 4.55995E-03-1.68509E-03
 -1        69-3.44227E-05 4.58939E-03-1.70856E-03
 -1        70-2.61537E-04 4.53995E-03-1.72710E-03
 -1        71-9.87396E-04 2.00451E-03-7.42487E-04
 -1        72-2.70907E-04 2.00684E-03-7.43320E-04
 -1        73-2.71051E-18 2.00770E-03-7.43942E-04
 -1        74-7.31106E-04 2.00602E-03-7.43624E-04
 -1        75-8.42553E-04 3.49190E-03-1.26685E-03
 -1        76-2.28855E-04 3.51677E-03-1.29230E-03
 -1        77-2.71051E-18 3.50143E-03-1.29744E-03
 -1        78-6.17617E-04 3.48756E-03-1.30312E-03
 -1        79-6.14716E-04 2.00117E-03-7.44446E-04
 -1        80-1.30547E-04 2.01161E-03-7.41928E-04
 -1        81-3.52311E-04 2.00226E-03-7.45390E-04
 -1        82-8.56451E-04 2.00966E-03-7.41341E-04
 -1        83 2.70907E-04 2.00684E-03-7.43320E-04
 -1        84-4.53485E-04 2.00475E-03-7.43125E-04
 -1        85 2.28855E-04 3.51677E-03-1.29230E-03
 -1        86-3.86963E-04 3.51515E-03-1.32958E-03
 -1        87 1.30547E-04 2.01161E-03-7.41928E-04
 -1        88-7.46627E-05 2.00132E-03-7.44961E-04
 -1        89-6.01006E-04 2.00985E-03-7.41760E-04
 -1        90 0.00000E+00 0.00000E+00 0.00000E+00
 -1        91 0.00000E+00 0.00000E+00 0.00000E+00
 -1        92 0.00000E+00 0.00000E+00 0.00000E+00
 -1        93 0.00000E+00 0.00000E+00 0.00000E+00
 -1        94-6.34345E-04 6.67688E-04-3.03947E-04
 -1        95-1.70989E-04 6.11538E-04-2.49973E-04
 -1        96-1.62630E-19 6.41902E-04-2.37853E-04
 -1        97-4.61452E-04 6.74611E-04-2.26602E-04
 -1        98 0.00000E+00 0.00000E+00 0.00000E+00
 -1        99 0.00000E+00 0.00000E+00 0.00000E+00
 -1       100 0.00000E+00 0.00000E+00 0.00000E+00
 -1       101 0.00000E+00 0.00000E+00 0.00000E+00
 -1       102 0.00000E+00 0.00000E+00 0.00000E+00
 -1       103 0.00000E+00 0.00000E+00 0.00000E+00
 -1       104 1.70989E-04 6.11538E-04-2.49973E-04
 -1       105-2.91338E-04 6.19119E-04-1.72873E-04
 -1       106 0.00000E+00 0.00000E+00 0.00000E+00
 -1       107 0.00000E+00 0.00000E+00 0.00000E+00
 -1       108 0.00000E+00 0.00000E+00 0.00000E+00
 -1       109-9.83316E-04-6.55405E-03 2.42694E-03
 -1       110-1.56281E-03-6.55587E-03 2.42810E-03
 -1       111-8.77976E-04-4.15914E-04 1.25797E-04
 -1       112-1.39762E-03-4.44494E-04 1.52460E-04
 -1       113-2.00865E-04-6.55391E-03 2.42780E-03
 -1       114-1.27368E-03-6.55442E-03 2.42765E-03
 -1       115-7.80427E-04-6.55566E-03 2.42824E-03
 -1       116-9.58278E-04-3.42178E-03 1.25802E-03
 -1       117-1.52414E-03-3.43179E-03 1.26713E-03
 -1       118-1.72418E-04-4.09633E-04 1.46725E-04
 -1       119-1.14196E-03-4.34240E-04 1.37628E-04
 -1       120-6.92998E-04-4.32186E-04 1.57024E-04
 -1       121-2.14102E-03-6.55545E-03 2.43072E-03
 -1       122-1.91166E-03-4.40241E-04 1.91447E-04
 -1       123-1.85166E-03-6.55520E-03 2.42965E-03
 -1       124-1.35895E-03-6.55465E-03 2.42990E-03
 -1       125-2.08651E-03-3.43029E-03 1.28098E-03
 -1       126-1.65357E-03-4.46421E-04 1.70454E-04
 -1       127-1.20829E-03-4.21797E-04 1.79599E-04
 -1       128-4.14081E-04 3.96800E-03-1.53241E-03
 -1       129-6.58887E-04 3.90542E-03-1.47365E-03
 -1       130-6.80060E-04 2.15722E-03-8.47666E-04
 -1       131-1.08266E-03 2.10845E-03-8.01805E-04
 -1       132-8.18541E-05 3.98185E-03-1.48619E-03
 -1       133-5.38151E-04 3.92730E-03-1.50648E-03
 -1       134-3.27065E-04 3.93275E-03-1.46360E-03
 -1       135-9.01600E-04 3.91467E-03-1.38847E-03
 -1       136-1.48073E-03 2.11571E-03-7.35645E-04
 -1       137-7.79766E-04 3.90071E-03-1.43454E-03
 -1       138-5.70201E-04 3.95519E-03-1.41444E-03
 -1       139 1.98335E-04 4.57601E-03-1.74870E-03
 -1       140 3.18605E-04 4.52269E-03-1.69867E-03
 -1       141-9.87442E-05 4.78699E-03-1.83800E-03
 -1       142-1.56322E-04 4.72211E-03-1.77691E-03
 -1       143 3.44227E-05 4.58939E-03-1.70856E-03
 -1       144 2.61537E-04 4.53995E-03-1.72710E-03
 -1       145 1.54978E-04 4.54761E-03-1.68967E-03
 -1       146 4.31846E-04 4.53042E-03-1.62564E-03
 -1       147-2.15001E-04 4.73183E-03-1.68915E-03
 -1       148 3.74358E-04 4.51735E-03-1.66561E-03
 -1       149 2.70050E-04 4.56661E-03-1.64758E-03
 -1       150 4.53485E-04 2.00475E-03-7.43125E-04
 -1       151 7.31106E-04 2.00602E-03-7.43624E-04
 -1       152 3.86963E-04 3.51515E-03-1.32958E-03
 -1       153 6.17617E-04 3.48756E-03-1.30312E-03
 -1       154 7.46627E-05 2.00132E-03-7.44961E-04
 -1       155 6.01006E-04 2.00985E-03-7.41760E-04
 -1       156 3.52311E-04 2.00226E-03-7.45390E-04
 -1       157 9.87396E-04 2.00451E-03-7.42487E-04
 -1       158 8.42553E-04 3.49190E-03-1.26685E-03
 -1       159 8.56451E-04 2.00966E-03-7.41341E-04
 -1       160 6.14716E-04 2.00117E-03-7.44446E-04
 -1       161 0.00000E+00 0.00000E+00 0.00000E+00
 -1       162 0.00000E+00 0.00000E+00 0.00000E+00
 -1       163 2.91338E-04 6.19119E-04-1.72873E-04
 -1       164 4.61452E-04 6.74611E-04-2.26602E-04
 -1       165 0.00000E+00 0.00000E+00 0.00000E+00
 -1       166 0.00000E+00 0.00000E+00 0.00000E+00
 -1       167 0.00000E+00 0.00000E+00 0.00000E+00
 -1       168 0.00000E+00 0.00000E+00 0.00000E+00
 -1       169 6.34345E-04 6.67688E-04-3.03947E-04
 -1       170 0.00000E+00 0.00000E+00 0.00000E+00
 -1       171 0.00000E+00 0.00000E+00 0.00000E+00
 -3
    1PSTEP                         6           1           1          
    1PGM                1.000000E+00                                  
    1PGK                9.893665E+04                                  
    1PHID                         -1                                  
    1PSUBC                         0                                  
    1PMODE                         3                                  
  100CL  103 5.00609E+01         171                     2    3MODAL      1
 -4  STRESS      6    1
 -5  SXX         1    4    1    1
 -5  SYY         1    4    2    2
 -5  SZZ         1    4    3    3
 -5  SXY         1    4    1    2
 -5  SYZ         1    4    2    3
 -5  SZX         1    4    3    1
 -1         1-2.02529E+06-1.32174E+06-1.66242E+06-4.61309E+06 4.96988E+05 1.64652E+06
 -1         2-6.45484E+05-5.85698E+05-2.66054E+05-6.21159E+06 3.67480E+05 1.68288E+06
 -1         3-5.09783E-07-7.69505E-07-3.45154E-06-5.86832E+06 1.05472E-06 2.17447E+06
 -1         4-1.74199E+06-7.18009E+05-1.58064E+06-4.54165E+06 1.36168E+05 2.30167E+06
 -1         5 5.89081E+07-4.58280E+05-4.58595E+05-6.84960E+06 2.77830E+04 1.93929E+06
 -1         6 1.58953E+07-1.32055E+05-1.17128E+05-1.67576E+07 2.50457E+04 2.37149E+06
 -1         7 1.73344E-06 2.54738E-06 1.44801E-06-1.45455E+07-2.19497E-06 5.38976E+06
 -1         8 4.28970E+07-3.16096E+05-3.56382E+05-6.40001E+06 9.28054E+03 6.20944E+06
 -1         9-1.08564E+06-1.73067E+06-1.14846E+06-5.58581E+06 3.36979E+05 1.62340E+06
 -1        10-2.54604E+05-3.74406E+05-4.21962E+05-5.84029E+06-4.56205E+04 1.99447E+06
 -1        11-6.87108E+05-1.13876E+06-1.01042E+06-5.38254E+06-1.69044E+04 2.16409E+06
 -1        12-1.92818E+06-1.10786E+06-1.95669E+06-4.38695E+06 8.08345E+04 2.03348E+06
 -1        13 2.30148E+07-7.43503E+04 3.34798E+05 1.25006E+06-3.40303E+05-7.97048E+05
 -1        14 6.13258E+06 1.02559E+05-6.50178E+04-4.52572E+06-2.52066E+05-5.62770E+05
 -1        15 1.11145E-06-8.28994E-07 2.42812E-06-3.23424E+06-6.56102E-07 1.19843E+06
 -1        16 1.65502E+07-1.75466E+05 2.76779E+05 1.51876E+06-9.34018E+04 1.67698E+06
 -1        17 3.74546E+07-3.71979E+05-3.02809E+05-1.18973E+07 1.84471E+04 2.19271E+06
 -1        18 7.96487E+06-7.20693E+04-8.34024E+04-1.52276E+07-7.21840E+03 3.95180E+06
 -1        19 2.14950E+07-2.25081E+05-1.94496E+05-1.06648E+07-2.67474E+03 5.64252E+06
 -1        20 5.09037E+07-3.94717E+05-4.42628E+05-6.26960E+06-2.59785E+01 3.88470E+06
 -1        21 6.45484E+05 5.85698E+05 2.66054E+05-6.21159E+06-3.67480E+05 1.68288E+06
 -1        22-9.30164E+05-3.14376E+05-1.05617E+06-4.66706E+06-2.28253E+05 1.79219E+06
 -1        23-1.58953E+07 1.32055E+05 1.17128E+05-1.67576E+07-2.50457E+04 2.37149E+06
 -1        24 2.70550E+07-2.10206E+05-2.10891E+05-7.36398E+06-1.27600E+04 3.32748E+06
 -1        25 2.54604E+05 3.74406E+05 4.21962E+05-5.84029E+06 4.56205E+04 1.99447E+06
 -1        26 2.25171E+05-6.00698E+05-5.62335E+05-5.61701E+06-3.74803E+05 1.62841E+06
 -1        27-1.60934E+06-4.73931E+05-1.09281E+06-4.38881E+06 1.82912E+05 2.11767E+06
 -1        28-6.13258E+06-1.02559E+05 6.50178E+04-4.52572E+06 2.52066E+05-5.62770E+05
 -1        29 1.05701E+07-3.85621E+05 5.05238E+05 9.63281E+05 1.56292E+05-2.30953E+04
 -1        30-7.96487E+06 7.20693E+04 8.34024E+04-1.52276E+07 7.21840E+03 3.95180E+06
 -1        31 5.64862E+06-1.10150E+05-6.01204E+04-1.23473E+07-2.43414E+04 2.49515E+06
 -1        32 3.49320E+07-2.60235E+05-2.63977E+05-6.38167E+06 1.58810E+04 5.09899E+06
 -1        33 1.37138E+08 1.84909E+06 2.05134E+06-2.85929E+06-2.07122E+05 7.68106E+05
 -1        34 3.71789E+07 6.32600E+05 4.54611E+05-6.92882E+06-1.98851E+05 9.99182E+05
 -1        35 9.17877E-07 6.82747E-07 2.64648E-06-6.03388E+06 1.89175E-06 2.23582E+06
 -1        36 1.00336E+08 1.22687E+06 1.70722E+06-2.69652E+06-7.36832E+04 2.56744E+06
 -1        37 1.01106E+08 3.41024E+05-1.62216E+04 1.40548E+06 2.83680E+05-9.49577E+05
 -1        38 2.74029E+07-3.65407E+04 1.32976E+05-5.63299E+06 2.10728E+05-6.59076E+05
 -1        39 9.45060E-07 9.93969E-07 1.34185E-06-4.00373E+06 2.75810E-07 1.48356E+06
 -1        40 7.39530E+07 3.58868E+05-9.86135E+04 1.77867E+06 7.80842E+04 2.08728E+06
 -1        41 8.66185E+07 1.40613E+06 1.17015E+06-4.95679E+06-1.52365E+05 8.97228E+05
 -1        42 1.84218E+07 3.04847E+05 3.02088E+05-6.29353E+06 4.90583E+03 1.65543E+06
 -1        43 4.97153E+07 8.15254E+05 8.22700E+05-4.46756E+06 1.81783E+03 2.33203E+06
 -1        44 1.18675E+08 1.52847E+06 1.98728E+06-2.61699E+06-1.98536E+04 1.60295E+06
 -1        45-3.71789E+07-6.32600E+05-4.54611E+05-6.92882E+06 1.98851E+05 9.99182E+05
 -1        46 6.29841E+07 6.75496E+05 1.11587E+06-3.10961E+06 9.51258E+04 1.44364E+06
 -1        47-2.74029E+07 3.65407E+04-1.32976E+05-5.63299E+06-2.10728E+05-6.59076E+05
 -1        48 4.64355E+07 4.63511E+05-3.14338E+05 1.03713E+06-1.30287E+05 4.44802E+04
 -1        49-1.84218E+07-3.04847E+05-3.02088E+05-6.29353E+06-4.90583E+03 1.65543E+06
 -1        50 1.22439E+07 1.46563E+05 2.29605E+05-5.15760E+06 1.83809E+05 1.06526E+06
 -1        51 8.20420E+07 1.00980E+06 1.41194E+06-2.67925E+06-1.04714E+05 2.14489E+06
 -1        52 1.16555E+08-1.47070E+06-2.10085E+05 7.35376E+06-1.07787E+06-2.10633E+06
 -1        53 3.14262E+07 1.10254E+05-6.98250E+05 1.52598E+07-9.72134E+05-2.50503E+06
 -1        54-2.71644E-06-1.03444E-05-9.28296E-07 1.31737E+07-9.46166E-07-4.88145E+06
 -1        55 8.48109E+07-1.88439E+06 2.97545E+05 6.76039E+06-3.60219E+05-5.65444E+06
 -1        56 1.32782E+08-8.20849E+05-1.06533E+06-2.02872E+05 1.15526E+05 2.14520E+05
 -1        57 3.60644E+07-2.76064E+05-2.47428E+05 1.52159E+06 3.85891E+04 1.07781E+05
 -1        58-1.68080E-06-5.08461E-06-9.27626E-07 1.08958E+06 3.49411E-07-4.03738E+05
 -1        59 9.73280E+07-6.67742E+05-7.45021E+05-2.90873E+05 1.42990E+04-5.63816E+05
 -1        60 7.35838E+07 4.96916E+05-1.47901E+05 1.15488E+07-8.22721E+05-2.30024E+06
 -1        61 1.56166E+07 2.11387E+05 1.34850E+05 1.37863E+07-3.59076E+04-3.79315E+06
 -1        62 4.21451E+07 3.63924E+05 5.70477E+05 1.02367E+07-1.33054E+04-5.10843E+06
 -1        63 1.00697E+08-1.57733E+06 5.24707E+05 6.68060E+06-2.03713E+05-3.91255E+06
 -1        64-3.14262E+07-1.10254E+05 6.98250E+05 1.52598E+07 9.72134E+05-2.50503E+06
 -1        65 5.35308E+07-1.75838E+06 9.86433E+05 7.88514E+06 4.95039E+05-3.54037E+06
 -1        66-3.60644E+07 2.76064E+05 2.47428E+05 1.52159E+06-3.85891E+04 1.07781E+05
 -1        67 6.09834E+07-1.66974E+05-6.99300E+05-8.31676E+04-5.30581E+04-1.08530E+05
 -1        68-1.56166E+07-2.11387E+05-1.34850E+05 1.37863E+07 3.59076E+04-3.79315E+06
 -1        69 1.05034E+07 2.04347E+05 1.16001E+06 1.18639E+07 9.09605E+05-2.70646E+06
 -1        70 6.95394E+07-1.95237E+06 2.64858E+05 6.83112E+06-4.38191E+05-4.76293E+06
 -1        71-2.20421E+07-1.78423E+06-4.85952E+06 1.10109E+07 4.01112E+06-1.65470E+06
 -1        72-6.24878E+06-1.94633E+06 1.78477E+04 3.40407E+07 2.91042E+06-3.25281E+06
 -1        73-2.61003E-07 2.77394E-06-1.89804E-06 2.80614E+07 4.64497E-08-1.03980E+07
 -1        74-1.68638E+07 4.81662E+04-5.25262E+06 8.77847E+06 1.07844E+06-1.26136E+07
 -1        75 5.76774E+07 4.35888E+06 2.71078E+06-3.21476E+06 1.26452E+06 1.76634E+06
 -1        76 1.58885E+07 5.47074E+05 1.46317E+06 1.09656E+07 9.53662E+05 1.34434E+06
 -1        77-8.86037E-07-2.90887E-06-1.05874E-06 8.31515E+06-1.70141E-06-3.08114E+06
 -1        78 4.28787E+07 3.94871E+06 1.47641E+06-3.62802E+06 3.53374E+05-4.06324E+06
 -1        79-1.61595E+07-7.17122E+06-4.64264E+06 2.26722E+07 2.98234E+06-2.57675E+06
 -1        80-3.88304E+06-1.80448E+06-1.95505E+06 3.04227E+07 1.94554E+05-6.89242E+06
 -1        81-1.04793E+07-5.27614E+06-4.86981E+06 1.86008E+07 7.20910E+04-1.12730E+07
 -1        82-2.02458E+07-1.67693E+06-7.03176E+06 9.39456E+06 1.29112E+06-7.11201E+06
 -1        83 6.24878E+06 1.94633E+06-1.78477E+04 3.40407E+07-2.91042E+06-3.25281E+06
 -1        84-1.01234E+07 1.82235E+06-4.87364E+06 1.30944E+07-1.84220E+06-7.27741E+06
 -1        85-1.58885E+07-5.47074E+05-1.46317E+06 1.09656E+07-9.53662E+05 1.34434E+06
 -1        86 2.64897E+07 3.41771E+06-1.70801E+05-2.72071E+06-5.80761E+05 4.33020E+05
 -1        87 3.88304E+06 1.80448E+06 1.95505E+06 3.04227E+07-1.94554E+05-6.89242E+06
 -1        88-3.91129E+06-3.41335E+06-4.67989E+06 2.37796E+07-2.82254E+06-4.67332E+06
 -1        89-1.28087E+07 1.77748E+06-3.10971E+06 1.01714E+07 8.59854E+05-1.01005E+07
 -1        90-2.08650E+08-8.94221E+07-8.94221E+07 2.56240E+07-2.06526E+01-1.82037E+07
 -1        91-5.56021E+07-2.38296E+07-2.38296E+07 1.68961E+07-1.52878E+01-9.86804E+06
 -1        92 1.78348E-07-1.52009E-07 9.60426E-09 2.15344E+07-6.65386E-08-7.97947E+06
 -1        93-1.50055E+08-6.43097E+07-6.43097E+07 2.66312E+07-5.66482E+00-6.26076E+06
 -1        94-9.92420E+07-3.23355E+06 1.56749E+06 1.36974E+06-5.41301E+06-1.09701E+06
 -1        95-2.72905E+07 1.00993E+06-1.67339E+06 1.07591E+07-4.04674E+06-7.73725E+05
 -1        96-9.31323E-08 1.46218E-06-8.61008E-07 1.03016E+07 4.72181E-07-3.81720E+06
 -1        97-7.36497E+07-4.51602E+06 2.72553E+06 2.08808E+06-1.49950E+06-3.98673E+06
 -1        98-1.30187E+08-5.57935E+07-5.57935E+07 2.10877E+07-3.11698E+01-1.40956E+07
 -1        99-2.71414E+07-1.16318E+07-1.16318E+07 1.93831E+07-7.79750E+00-8.85864E+06
 -1       100-7.32474E+07-3.13912E+07-3.13912E+07 2.39071E+07-2.88932E+00-7.18232E+06
 -1       101-1.78980E+08-7.67050E+07-7.67050E+07 2.62976E+07-1.80739E+01-1.21667E+07
 -1       102 5.56021E+07 2.38296E+07 2.38296E+07 1.68961E+07 1.52878E+01-9.86804E+06
 -1       103-9.58276E+07-4.10693E+07-4.10692E+07 1.81428E+07 9.48521E+00 1.98617E+06
 -1       104 2.72905E+07-1.00993E+06 1.67339E+06 1.07591E+07 4.04674E+06-7.73725E+05
 -1       105-4.55793E+07-5.60936E+06 4.84418E+06 8.63372E+05 2.48606E+06 2.69544E+05
 -1       106 2.71414E+07 1.16318E+07 1.16318E+07 1.93831E+07 7.79750E+00-8.85864E+06
 -1       107-1.78759E+07-7.66078E+06-7.66075E+06 1.73485E+07 2.55653E+01-4.00819E+06
 -1       108-1.24116E+08-5.31924E+07-5.31923E+07 2.25597E+07-2.94897E+00-2.07559E+06
 -1       109 9.30164E+05 3.14376E+05 1.05617E+06-4.66706E+06 2.28253E+05 1.79219E+06
 -1       110 1.74199E+06 7.18009E+05 1.58064E+06-4.54165E+06-1.36168E+05 2.30167E+06
 -1       111-2.70550E+07 2.10206E+05 2.10891E+05-7.36398E+06 1.27600E+04 3.32748E+06
 -1       112-4.28970E+07 3.16096E+05 3.56382E+05-6.40001E+06-9.28054E+03 6.20944E+06
 -1       113-2.25171E+05 6.00698E+05 5.62335E+05-5.61701E+06 3.74803E+05 1.62841E+06
 -1       114 1.60934E+06 4.73931E+05 1.09281E+06-4.38881E+06-1.82912E+05 2.11767E+06
 -1       115 6.87108E+05 1.13876E+06 1.01042E+06-5.38254E+06 1.69044E+04 2.16409E+06
 -1       116-1.05701E+07 3.85621E+05-5.05238E+05 9.63281E+05-1.56292E+05-2.30953E+04
 -1       117-1.65502E+07 1.75466E+05-2.76779E+05 1.51876E+06 9.34018E+04 1.67698E+06
 -1       118-5.64862E+06 1.10150E+05 6.01204E+04-1.23473E+07 2.43414E+04 2.49515E+06
 -1       119-3.49320E+07 2.60235E+05 2.63977E+05-6.38167E+06-1.58810E+04 5.09899E+06
 -1       120-2.14950E+07 2.25081E+05 1.94496E+05-1.06648E+07 2.67474E+03 5.64252E+06
 -1       121 2.02529E+06 1.32174E+06 1.66242E+06-4.61309E+06-4.96988E+05 1.64652E+06
 -1       122-5.89081E+07 4.58280E+05 4.58595E+05-6.84960E+06-2.77830E+04 1.93929E+06
 -1       123 1.92818E+06 1.10786E+06 1.95669E+06-4.38695E+06-8.08345E+04 2.03348E+06
 -1       124 1.08564E+06 1.73067E+06 1.14846E+06-5.58581E+06-3.36979E+05 1.62340E+06
 -1       125-2.30148E+07 7.43503E+04-3.34798E+05 1.25006E+06 3.40303E+05-7.97048E+05
 -1       126-5.09037E+07 3.94717E+05 4.42628E+05-6.26960E+06 2.59785E+01 3.88470E+06
 -1       127-3.74546E+07 3.71979E+05 3.02809E+05-1.18973E+07-1.84471E+04 2.19271E+06
 -1       128-6.29841E+07-6.75496E+05-1.11587E+06-3.10961E+06-9.51258E+04 1.44364E+06
 -1       129-1.00336E+08-1.22687E+06-1.70722E+06-2.69652E+06 7.36832E+04 2.56744E+06
 -1       130-4.64355E+07-4.63511E+05 3.14338E+05 1.03713E+06 1.30287E+05 4.44802E+04
 -1       131-7.39530E+07-3.58868E+05 9.86135E+04 1.77867E+06-7.80842E+04 2.08728E+06
 -1       132-1.22439E+07-1.46563E+05-2.29605E+05-5.15760E+06-1.83809E+05 1.06526E+06
 -1       133-8.20420E+07-1.00980E+06-1.41194E+06-2.67925E+06 1.04714E+05 2.14489E+06
 -1       134-4.97153E+07-8.15254E+05-8.22700E+05-4.46756E+06-1.81783E+03 2.33203E+06
 -1       135-1.37138E+08-1.84909E+06-2.05134E+06-2.85929E+06 2.07122E+05 7.68106E+05
 -1       136-1.01106E+08-3.41024E+05 1.62216E+04 1.40548E+06-2.83680E+05-9.49577E+05
 -1       137-1.18675E+08-1.52847E+06-1.98728E+06-2.61699E+06 1.98536E+04 1.60295E+06
 -1       138-8.66185E+07-1.40613E+06-1.17015E+06-4.95679E+06 1.52365E+05 8.97228E+05
 -1       139-5.35308E+07 1.75838E+06-9.86433E+05 7.88514E+06-4.95039E+05-3.54037E+06
 -1       140-8.48109E+07 1.88439E+06-2.97545E+05 6.76039E+06 3.60219E+05-5.65444E+06
 -1       141-6.09834E+07 1.66974E+05 6.99300E+05-8.31676E+04 5.30581E+04-1.08530E+05
 -1       142-9.73280E+07 6.67742E+05 7.45021E+05-2.90873E+05-1.42990E+04-5.63816E+05
 -1       143-1.05034E+07-2.04347E+05-1.16001E+06 1.18639E+07-9.09605E+05-2.70646E+06
 -1       144-6.95394E+07 1.95237E+06-2.64858E+05 6.83112E+06 4.38191E+05-4.76293E+06
 -1       145-4.21451E+07-3.63924E+05-5.70477E+05 1.02367E+07 1.33054E+04-5.10843E+06
 -1       146-1.16555E+08 1.47070E+06 2.10085E+05 7.35376E+06 1.07787E+06-2.10633E+06
 -1       147-1.32782E+08 8.20849E+05 1.06533E+06-2.02872E+05-1.15526E+05 2.14520E+05
 -1       148-1.00697E+08 1.57733E+06-5.24707E+05 6.68060E+06 2.03713E+05-3.91255E+06
 -1       149-7.35838E+07-4.96916E+05 1.47901E+05 1.15488E+07 8.22721E+05-2.30024E+06
 -1       150 1.01234E+07-1.82235E+06 4.87364E+06 1.30944E+07 1.84220E+06-7.27741E+06
 -1       151 1.68638E+07-4.81662E+04 5.25262E+06 8.77847E+06-1.07844E+06-1.26136E+07
 -1       152-2.64897E+07-3.41771E+06 1.70801E+05-2.72071E+06 5.80761E+05 4.33020E+05
 -1       153-4.28787E+07-3.94871E+06-1.47641E+06-3.62802E+06-3.53374E+05-4.06324E+06
 -1       154 3.91129E+06 3.41335E+06 4.67989E+06 2.37796E+07 2.82254E+06-4.67332E+06
 -1       155 1.28087E+07-1.77748E+06 3.10971E+06 1.01714E+07-8.59854E+05-1.01005E+07
 -1       156 1.04793E+07 5.27614E+06 4.86981E+06 1.86008E+07-7.20910E+04-1.12730E+07
 -1       157 2.20421E+07 1.78423E+06 4.85952E+06 1.10109E+07-4.01112E+06-1.65470E+06
 -1       158-5.76774E+07-4.35888E+06-2.71078E+06-3.21476E+06-1.26452E+06 1.76634E+06
 -1       159 2.02458E+07 1.67693E+06 7.03176E+06 9.39456E+06-1.29112E+06-7.11201E+06
 -1       160 1.61595E+07 7.17122E+06 4.64264E+06 2.26722E+07-2.98234E+06-2.57675E+06
 -1       161 9.58276E+07 4.10693E+07 4.10692E+07 1.81428E+07-9.48521E+00 1.98617E+06
 -1       162 1.50055E+08 6.43097E+07 6.43097E+07 2.66312E+07 5.66482E+00-6.26076E+06
 -1       163 4.55793E+07 5.60936E+06-4.84418E+06 8.63372E+05-2.48606E+06 2.69544E+05
 -1       164 7.36497E+07 4.51602E+06-2.72553E+06 2.08808E+06 1.49950E+06-3.98673E+06
 -1       165 1.78759E+07 7.66078E+06 7.66075E+06 1.73485E+07-2.55653E+01-4.00819E+06
 -1       166 1.24116E+08 5.31924E+07 5.31923E+07 2.25597E+07 2.94897E+00-2.07559E+06
 -1       167 7.32474E+07 3.13912E+07 3.13912E+07 2.39071E+07 2.88932E+00-7.18232E+06
 -1       168 2.08650E+08 8.94221E+07 8.94221E+07 2.56240E+07 2.06526E+01-1.82037E+07
 -1       169 9.92420E+07 3.23355E+06-1.56749E+06 1.36974E+06 5.41301E+06-1.09701E+06
 -1       170 1.78980E+08 7.67050E+07 7.67050E+07 2.62976E+07 1.80739E+01-1.21667E+07
 -1       171 1.30187E+08 5.57935E+07 5.57935E+07 2.10877E+07 3.11698E+01-1.40956E+07
 -3
    1PSTEP                         7           1           1          
    1PGM                1.000000E+00                                  
    1PGK                9.893665E+04                                  
    1PHID                         -1                                  
    1PSUBC                         0                                  
    1PMODE                         4                                  
  100CL  104 5.00609E+01         171                     2    4MODAL      1
 -4  DISP        4    1
 -5  D1          1    2    1    0
 -5  D2          1    2    2    0
 -5  D3          1    2    3    0
 -5  ALL         1    2    0    0    1ALL
 -1         1 9.83316E-04 2.42694E-03 6.55405E-03
 -1         2 1.56281E-03 2.42810E-03 6.55587E-03
 -1         3 3.25261E-18 2.42866E-03 6.55430E-03
 -1         4-5.79091E-04 2.42924E-03 6.55280E-03
 -1         5 8.77976E-04 1.25797E-04 4.15914E-04
 -1         6 1.39762E-03 1.52460E-04 4.44494E-04
 -1         7 4.98733E-18 1.58577E-04 4.27957E-04
 -1         8-5.17879E-04 1.64705E-04 4.11448E-04
 -1         9 1.27368E-03 2.42765E-03 6.55442E-03
 -1        10 7.80427E-04 2.42824E-03 6.55566E-03
 -1        11-2.89183E-04 2.42916E-03 6.55315E-03
 -1        12 2.00865E-04 2.42780E-03 6.55391E-03
 -1        13 9.58278E-04 1.25802E-03 3.42178E-03
 -1        14 1.52414E-03 1.26713E-03 3.43179E-03
 -1        15 2.60209E-18 1.26936E-03 3.42567E-03
 -1        16-5.64762E-04 1.27163E-03 3.41963E-03
 -1        17 1.14196E-03 1.37628E-04 4.34240E-04
 -1        18 6.92998E-04 1.57024E-04 4.32186E-04
 -1        19-2.56787E-04 1.60144E-04 4.23765E-04
 -1        20 1.72418E-04 1.46725E-04 4.09633E-04
 -1        21-1.56281E-03 2.42810E-03 6.55587E-03
 -1        22-2.14102E-03 2.43072E-03 6.55545E-03
 -1        23-1.39762E-03 1.52460E-04 4.44494E-04
 -1        24-1.91166E-03 1.91447E-04 4.40241E-04
 -1        25-7.80427E-04 2.42824E-03 6.55566E-03
 -1        26-1.85166E-03 2.42965E-03 6.55520E-03
 -1        27-1.35895E-03 2.42990E-03 6.55465E-03
 -1        28-1.52414E-03 1.26713E-03 3.43179E-03
 -1        29-2.08651E-03 1.28098E-03 3.43029E-03
 -1        30-6.92998E-04 1.57024E-04 4.32186E-04
 -1        31-1.65357E-03 1.70454E-04 4.46421E-04
 -1        32-1.20829E-03 1.79599E-04 4.21797E-04
 -1        33 4.14081E-04-1.53241E-03-3.96800E-03
 -1        34 6.58887E-04-1.47365E-03-3.90542E-03
 -1        35-3.68629E-18-1.46042E-03-3.94128E-03
 -1        36-2.44147E-04-1.44713E-03-3.97699E-03
 -1        37 6.80060E-04-8.47666E-04-2.15722E-03
 -1        38 1.08266E-03-8.01805E-04-2.10845E-03
 -1        39 1.06049E-18-7.91508E-04-2.13607E-03
 -1        40-4.01175E-04-7.81277E-04-2.16385E-03
 -1        41 5.38151E-04-1.50648E-03-3.92730E-03
 -1        42 3.27065E-04-1.46360E-03-3.93275E-03
 -1        43-1.21192E-04-1.45726E-03-3.94986E-03
 -1        44 8.18541E-05-1.48619E-03-3.98185E-03
 -1        45-6.58887E-04-1.47365E-03-3.90542E-03
 -1        46-9.01600E-04-1.38847E-03-3.91467E-03
 -1        47-1.08266E-03-8.01805E-04-2.10845E-03
 -1        48-1.48073E-03-7.35645E-04-2.11571E-03
 -1        49-3.27065E-04-1.46360E-03-3.93275E-03
 -1        50-7.79766E-04-1.43454E-03-3.90071E-03
 -1        51-5.70201E-04-1.41444E-03-3.95519E-03
 -1        52-1.98335E-04-1.74870E-03-4.57601E-03
 -1        53-3.18605E-04-1.69867E-03-4.52269E-03
 -1        54-7.80626E-18-1.68739E-03-4.55381E-03
 -1        55 1.18058E-04-1.67586E-03-4.58425E-03
 -1        56 9.87442E-05-1.83800E-03-4.78699E-03
 -1        57 1.56322E-04-1.77691E-03-4.72211E-03
 -1        58-5.20417E-18-1.76331E-03-4.75870E-03
 -1        59-5.79241E-05-1.74975E-03-4.79539E-03
 -1        60-2.61537E-04-1.72710E-03-4.53995E-03
 -1        61-1.54978E-04-1.68967E-03-4.54761E-03
 -1        62 5.74261E-05-1.68509E-03-4.55995E-03
 -1        63-3.44227E-05-1.70856E-03-4.58939E-03
 -1        64 3.18605E-04-1.69867E-03-4.52269E-03
 -1        65 4.31846E-04-1.62564E-03-4.53042E-03
 -1        66-1.56322E-04-1.77691E-03-4.72211E-03
 -1        67-2.15001E-04-1.68915E-03-4.73183E-03
 -1        68 1.54978E-04-1.68967E-03-4.54761E-03
 -1        69 3.74358E-04-1.66561E-03-4.51735E-03
 -1        70 2.70050E-04-1.64758E-03-4.56661E-03
 -1        71-4.53485E-04-7.43125E-04-2.00475E-03
 -1        72-7.31106E-04-7.43624E-04-2.00602E-03
 -1        73-6.50521E-18-7.43942E-04-2.00770E-03
 -1        74 2.70907E-04-7.43320E-04-2.00684E-03
 -1        75-3.86963E-04-1.32958E-03-3.51515E-03
 -1        76-6.17617E-04-1.30312E-03-3.48756E-03
 -1        77-6.50521E-18-1.29744E-03-3.50143E-03
 -1        78 2.28855E-04-1.29230E-03-3.51677E-03
 -1        79-6.01006E-04-7.41760E-04-2.00985E-03
 -1        80-3.52311E-04-7.45390E-04-2.00226E-03
 -1        81 1.30547E-04-7.41928E-04-2.01161E-03
 -1        82-7.46627E-05-7.44961E-04-2.00132E-03
 -1        83 7.31106E-04-7.43624E-04-2.00602E-03
 -1        84 9.87396E-04-7.42487E-04-2.00451E-03
 -1        85 6.17617E-04-1.30312E-03-3.48756E-03
 -1        86 8.42553E-04-1.26685E-03-3.49190E-03
 -1        87 3.52311E-04-7.45390E-04-2.00226E-03
 -1        88 8.56451E-04-7.41341E-04-2.00966E-03
 -1        89 6.14716E-04-7.44446E-04-2.00117E-03
 -1        90 0.00000E+00 0.00000E+00 0.00000E+00
 -1        91 0.00000E+00 0.00000E+00 0.00000E+00
 -1        92 0.00000E+00 0.00000E+00 0.00000E+00
 -1        93 0.00000E+00 0.00000E+00 0.00000E+00
 -1        94-2.91338E-04-1.72873E-04-6.19119E-04
 -1        95-4.61452E-04-2.26602E-04-6.74611E-04
 -1        96-4.55365E-18-2.37853E-04-6.41902E-04
 -1        97 1.70989E-04-2.49973E-04-6.11538E-04
 -1        98 0.00000E+00 0.00000E+00 0.00000E+00
 -1        99 0.00000E+00 0.00000E+00 0.00000E+00
 -1       100 0.00000E+00 0.00000E+00 0.00000E+00
 -1       101 0.00000E+00 0.00000E+00 0.00000E+00
 -1       102 0.00000E+00 0.00000E+00 0.00000E+00
 -1       103 0.00000E+00 0.00000E+00 0.00000E+00
 -1       104 4.61452E-04-2.26602E-04-6.74611E-04
 -1       105 6.34345E-04-3.03947E-04-6.67688E-04
 -1       106 0.00000E+00 0.00000E+00 0.00000E+00
 -1       107 0.00000E+00 0.00000E+00 0.00000E+00
 -1       108 0.00000E+00 0.00000E+00 0.00000E+00
 -1       109 2.14102E-03 2.43072E-03 6.55545E-03
 -1       110 5.79091E-04 2.42924E-03 6.55280E-03
 -1       111 1.91166E-03 1.91447E-04 4.40241E-04
 -1       112 5.17879E-04 1.64705E-04 4.11448E-04
 -1       113 1.85166E-03 2.42965E-03 6.55520E-03
 -1       114 1.35895E-03 2.42990E-03 6.55465E-03
 -1       115 2.89183E-04 2.42916E-03 6.55315E-03
 -1       116 2.08651E-03 1.28098E-03 3.43029E-03
 -1       117 5.64762E-04 1.27163E-03 3.41963E-03
 -1       118 1.65357E-03 1.70454E-04 4.46421E-04
 -1       119 1.20829E-03 1.79599E-04 4.21797E-04
 -1       120 2.56787E-04 1.60144E-04 4.23765E-04
 -1       121-9.83316E-04 2.42694E-03 6.55405E-03
 -1       122-8.77976E-04 1.25797E-04 4.15914E-04
 -1       123-2.00865E-04 2.42780E-03 6.55391E-03
 -1       124-1.27368E-03 2.42765E-03 6.55442E-03
 -1       125-9.58278E-04 1.25802E-03 3.42178E-03
 -1       126-1.72418E-04 1.46725E-04 4.09633E-04
 -1       127-1.14196E-03 1.37628E-04 4.34240E-04
 -1       128 9.01600E-04-1.38847E-03-3.91467E-03
 -1       129 2.44147E-04-1.44713E-03-3.97699E-03
 -1       130 1.48073E-03-7.35645E-04-2.11571E-03
 -1       131 4.01175E-04-7.81277E-04-2.16385E-03
 -1       132 7.79766E-04-1.43454E-03-3.90071E-03
 -1       133 5.70201E-04-1.41444E-03-3.95519E-03
 -1       134 1.21192E-04-1.45726E-03-3.94986E-03
 -1       135-4.14081E-04-1.53241E-03-3.96800E-03
 -1       136-6.80060E-04-8.47666E-04-2.15722E-03
 -1       137-8.18541E-05-1.48619E-03-3.98185E-03
 -1       138-5.38151E-04-1.50648E-03-3.92730E-03
 -1       139-4.31846E-04-1.62564E-03-4.53042E-03
 -1       140-1.18058E-04-1.67586E-03-4.58425E-03
 -1       141 2.15001E-04-1.68915E-03-4.73183E-03
 -1       142 5.79241E-05-1.74975E-03-4.79539E-03
 -1       143-3.74358E-04-1.66561E-03-4.51735E-03
 -1       144-2.70050E-04-1.64758E-03-4.56661E-03
 -1       145-5.74261E-05-1.68509E-03-4.55995E-03
 -1       146 1.98335E-04-1.74870E-03-4.57601E-03
 -1       147-9.87442E-05-1.83800E-03-4.78699E-03
 -1       148 3.44227E-05-1.70856E-03-4.58939E-03
 -1       149 2.61537E-04-1.72710E-03-4.53995E-03
 -1       150-9.87396E-04-7.42487E-04-2.00451E-03
 -1       151-2.70907E-04-7.43320E-04-2.00684E-03
 -1       152-8.42553E-04-1.26685E-03-3.49190E-03
 -1       153-2.28855E-04-1.29230E-03-3.51677E-03
 -1       154-8.56451E-04-7.41341E-04-2.00966E-03
 -1       155-6.14716E-04-7.44446E-04-2.00117E-03
 -1       156-1.30547E-04-7.41928E-04-2.01161E-03
 -1       157 4.53485E-04-7.43125E-04-2.00475E-03
 -1       158 3.86963E-04-1.32958E-03-3.51515E-03
 -1       159 7.46627E-05-7.44961E-04-2.00132E-03
 -1       160 6.01006E-04-7.41760E-04-2.00985E-03
 -1       161 0.00000E+00 0.00000E+00 0.00000E+00
 -1       162 0.00000E+00 0.00000E+00 0.00000E+00
 -1       163-6.34345E-04-3.03947E-04-6.67688E-04
 -1       164-1.70989E-04-2.49973E-04-6.11538E-04
 -1       165 0.00000E+00 0.00000E+00 0.00000E+00
 -1       166 0.00000E+00 0.00000E+00 0.00000E+00
 -1       167 0.00000E+00 0.00000E+00 0.00000E+00
 -1       168 0.00000E+00 0.00000E+00 0.00000E+00
 -1       169 2.91338E-04-1.72873E-04-6.19119E-04
 -1       170 0.00000E+00 0.00000E+00 0.00000E+00
 -1       171 0.00000E+00 0.00000E+00 0.00000E+00
 -3
    1PSTEP                         8           1           1          
    1PGM                1.000000E+00                                  
    1PGK                9.893665E+04                                  
    1PHID                         -1                                  
    1PSUBC                         0                                  
    1PMODE                         4                                  
  100CL  104 5.00609E+01         171                     2    4MODAL      1
 -4  STRESS      6    1
 -5  SXX         1    4    1    1
 -5  SYY         1    4    2    2
 -5  SZZ         1    4    3    3
 -5  SXY         1    4    1    2
 -5  SYZ         1    4    2    3
 -5  SZX         1    4    3    1
 -1         1-9.30164E+05-1.05617E+06-3.14376E+05 1.79219E+06 2.28253E+05 4.66706E+06
 -1         2-1.74199E+06-1.58064E+06-7.18009E+05 2.30167E+06-1.36168E+05 4.54165E+06
 -1         3-2.50642E-06-4.41029E-06-5.31424E-06 2.17447E+06 1.43358E-06 5.86832E+06
 -1         4 6.45484E+05 2.66054E+05 5.85698E+05 1.68288E+06 3.67480E+05 6.21159E+06
 -1         5 2.70550E+07-2.10891E+05-2.10206E+05 3.32748E+06 1.27600E+04 7.36398E+06
 -1         6 4.28970E+07-3.56382E+05-3.16096E+05 6.20944E+06-9.28054E+03 6.40001E+06
 -1         7 1.62888E-06 3.38115E-06 2.19887E-06 5.38976E+06-1.09012E-06 1.45455E+07
 -1         8-1.58953E+07 1.17128E+05 1.32055E+05 2.37149E+06 2.50457E+04 1.67576E+07
 -1         9-1.60934E+06-1.09281E+06-4.73931E+05 2.11767E+06-1.82912E+05 4.38881E+06
 -1        10-6.87108E+05-1.01042E+06-1.13876E+06 2.16409E+06 1.69044E+04 5.38254E+06
 -1        11 2.54604E+05 4.21962E+05 3.74406E+05 1.99447E+06-4.56205E+04 5.84029E+06
 -1        12 2.25171E+05-5.62335E+05-6.00698E+05 1.62841E+06 3.74803E+05 5.61701E+06
 -1        13 1.05701E+07 5.05238E+05-3.85621E+05-2.30953E+04-1.56292E+05-9.63281E+05
 -1        14 1.65502E+07 2.76779E+05-1.75466E+05 1.67698E+06 9.34018E+04-1.51876E+06
 -1        15 2.24204E-06 2.51087E-06 5.54751E-06 1.19843E+06-7.23656E-07 3.23424E+06
 -1        16-6.13258E+06 6.50178E+04-1.02559E+05-5.62770E+05-2.52066E+05 4.52572E+06
 -1        17 3.49320E+07-2.63977E+05-2.60235E+05 5.09899E+06-1.58810E+04 6.38167E+06
 -1        18 2.14950E+07-1.94496E+05-2.25081E+05 5.64252E+06 2.67474E+03 1.06648E+07
 -1        19-7.96487E+06 8.34024E+04 7.20693E+04 3.95180E+06-7.21840E+03 1.52276E+07
 -1        20 5.64862E+06-6.01204E+04-1.10150E+05 2.49515E+06 2.43414E+04 1.23473E+07
 -1        21 1.74199E+06 1.58064E+06 7.18009E+05 2.30167E+06 1.36168E+05 4.54165E+06
 -1        22 2.02529E+06 1.66242E+06 1.32174E+06 1.64652E+06 4.96988E+05 4.61309E+06
 -1        23-4.28970E+07 3.56382E+05 3.16096E+05 6.20944E+06 9.28054E+03 6.40001E+06
 -1        24-5.89081E+07 4.58595E+05 4.58280E+05 1.93929E+06 2.77830E+04 6.84960E+06
 -1        25 6.87108E+05 1.01042E+06 1.13876E+06 2.16409E+06-1.69044E+04 5.38254E+06
 -1        26 1.92818E+06 1.95669E+06 1.10786E+06 2.03348E+06 8.08345E+04 4.38695E+06
 -1        27 1.08564E+06 1.14846E+06 1.73067E+06 1.62340E+06 3.36979E+05 5.58581E+06
 -1        28-1.65502E+07-2.76779E+05 1.75466E+05 1.67698E+06-9.34018E+04-1.51876E+06
 -1        29-2.30148E+07-3.34798E+05 7.43503E+04-7.97048E+05-3.40303E+05-1.25006E+06
 -1        30-2.14950E+07 1.94496E+05 2.25081E+05 5.64252E+06-2.67474E+03 1.06648E+07
 -1        31-5.09037E+07 4.42628E+05 3.94717E+05 3.88470E+06-2.59785E+01 6.26960E+06
 -1        32-3.74546E+07 3.02809E+05 3.71979E+05 2.19271E+06 1.84471E+04 1.18973E+07
 -1        33 6.29841E+07 1.11587E+06 6.75496E+05 1.44364E+06-9.51258E+04 3.10961E+06
 -1        34 1.00336E+08 1.70722E+06 1.22687E+06 2.56744E+06 7.36832E+04 2.69652E+06
 -1        35 3.35353E-06 1.65946E-06 7.47008E-06 2.23582E+06-9.86714E-07 6.03388E+06
 -1        36-3.71789E+07-4.54611E+05-6.32600E+05 9.99182E+05-1.98851E+05 6.92882E+06
 -1        37 4.64355E+07-3.14338E+05 4.63511E+05 4.44802E+04 1.30287E+05-1.03713E+06
 -1        38 7.39530E+07-9.86135E+04 3.58868E+05 2.08728E+06-7.80842E+04-1.77867E+06
 -1        39 2.71888E-06 1.85237E-06 4.17206E-06 1.48356E+06-5.66546E-07 4.00373E+06
 -1        40-2.74029E+07-1.32976E+05 3.65407E+04-6.59076E+05 2.10728E+05 5.63299E+06
 -1        41 8.20420E+07 1.41194E+06 1.00980E+06 2.14489E+06 1.04714E+05 2.67925E+06
 -1        42 4.97153E+07 8.22700E+05 8.15254E+05 2.33203E+06-1.81783E+03 4.46756E+06
 -1        43-1.84218E+07-3.02088E+05-3.04847E+05 1.65543E+06 4.90583E+03 6.29353E+06
 -1        44 1.22439E+07 2.29605E+05 1.46563E+05 1.06526E+06-1.83809E+05 5.15760E+06
 -1        45-1.00336E+08-1.70722E+06-1.22687E+06 2.56744E+06-7.36832E+04 2.69652E+06
 -1        46-1.37138E+08-2.05134E+06-1.84909E+06 7.68106E+05-2.07122E+05 2.85929E+06
 -1        47-7.39530E+07 9.86135E+04-3.58868E+05 2.08728E+06 7.80842E+04-1.77867E+06
 -1        48-1.01106E+08 1.62216E+04-3.41024E+05-9.49577E+05 2.83680E+05-1.40548E+06
 -1        49-4.97153E+07-8.22700E+05-8.15254E+05 2.33203E+06 1.81783E+03 4.46756E+06
 -1        50-1.18675E+08-1.98728E+06-1.52847E+06 1.60295E+06-1.98536E+04 2.61699E+06
 -1        51-8.66185E+07-1.17015E+06-1.40613E+06 8.97228E+05-1.52365E+05 4.95679E+06
 -1        52 5.35308E+07 9.86433E+05-1.75838E+06-3.54037E+06-4.95039E+05-7.88514E+06
 -1        53 8.48109E+07 2.97545E+05-1.88439E+06-5.65444E+06 3.60219E+05-6.76039E+06
 -1        54 1.76742E-06 4.48871E-06 9.86678E-07-4.88145E+06-2.06950E-06-1.31737E+07
 -1        55-3.14262E+07 6.98250E+05-1.10254E+05-2.50503E+06-9.72134E+05-1.52598E+07
 -1        56 6.09834E+07-6.99300E+05-1.66974E+05-1.08530E+05 5.30581E+04 8.31676E+04
 -1        57 9.73280E+07-7.45021E+05-6.67742E+05-5.63816E+05-1.42990E+04 2.90873E+05
 -1        58 1.74867E-06 2.14658E-06 2.39020E-06-4.03738E+05-1.81605E-07-1.08958E+06
 -1        59-3.60644E+07 2.47428E+05 2.76064E+05 1.07781E+05 3.85891E+04-1.52159E+06
 -1        60 6.95394E+07 2.64858E+05-1.95237E+06-4.76293E+06 4.38191E+05-6.83112E+06
 -1        61 4.21451E+07 5.70477E+05 3.63924E+05-5.10843E+06 1.33054E+04-1.02367E+07
 -1        62-1.56166E+07-1.34850E+05-2.11387E+05-3.79315E+06-3.59076E+04-1.37863E+07
 -1        63 1.05034E+07 1.16001E+06 2.04347E+05-2.70646E+06-9.09605E+05-1.18639E+07
 -1        64-8.48109E+07-2.97545E+05 1.88439E+06-5.65444E+06-3.60219E+05-6.76039E+06
 -1        65-1.16555E+08 2.10085E+05 1.47070E+06-2.10633E+06-1.07787E+06-7.35376E+06
 -1        66-9.73280E+07 7.45021E+05 6.67742E+05-5.63816E+05 1.42990E+04 2.90873E+05
 -1        67-1.32782E+08 1.06533E+06 8.20849E+05 2.14520E+05 1.15526E+05 2.02872E+05
 -1        68-4.21451E+07-5.70477E+05-3.63924E+05-5.10843E+06-1.33054E+04-1.02367E+07
 -1        69-1.00697E+08-5.24707E+05 1.57733E+06-3.91255E+06-2.03713E+05-6.68060E+06
 -1        70-7.35838E+07 1.47901E+05-4.96916E+05-2.30024E+06-8.22721E+05-1.15488E+07
 -1        71-1.01234E+07-4.87364E+06 1.82235E+06-7.27741E+06 1.84220E+06-1.30944E+07
 -1        72-1.68638E+07-5.25262E+06 4.81662E+04-1.26136E+07-1.07844E+06-8.77847E+06
 -1        73-1.75193E-06-2.38564E-06-3.46033E-06-1.03980E+07 7.57311E-07-2.80614E+07
 -1        74 6.24878E+06-1.78477E+04 1.94633E+06-3.25281E+06 2.91042E+06-3.40407E+07
 -1        75 2.64897E+07-1.70801E+05 3.41771E+06 4.33020E+05 5.80761E+05 2.72071E+06
 -1        76 4.28787E+07 1.47641E+06 3.94871E+06-4.06324E+06-3.53374E+05 3.62802E+06
 -1        77 2.89612E-07 1.13235E-06 2.95986E-07-3.08114E+06 5.98375E-08-8.31515E+06
 -1        78-1.58885E+07-1.46317E+06-5.47074E+05 1.34434E+06 9.53662E+05-1.09656E+07
 -1        79-1.28087E+07-3.10971E+06 1.77748E+06-1.01005E+07-8.59854E+05-1.01714E+07
 -1        80-1.04793E+07-4.86981E+06-5.27614E+06-1.12730E+07-7.20910E+04-1.86008E+07
 -1        81 3.88304E+06 1.95505E+06 1.80448E+06-6.89242E+06 1.94554E+05-3.04227E+07
 -1        82-3.91129E+06-4.67989E+06-3.41335E+06-4.67332E+06 2.82254E+06-2.37796E+07
 -1        83 1.68638E+07 5.25262E+06-4.81662E+04-1.26136E+07 1.07844E+06-8.77847E+06
 -1        84 2.20421E+07 4.85952E+06 1.78423E+06-1.65470E+06 4.01112E+06-1.10109E+07
 -1        85-4.28787E+07-1.47641E+06-3.94871E+06-4.06324E+06 3.53374E+05 3.62802E+06
 -1        86-5.76774E+07-2.71078E+06-4.35888E+06 1.76634E+06 1.26452E+06 3.21476E+06
 -1        87 1.04793E+07 4.86981E+06 5.27614E+06-1.12730E+07 7.20910E+04-1.86008E+07
 -1        88 2.02458E+07 7.03176E+06 1.67693E+06-7.11201E+06 1.29112E+06-9.39456E+06
 -1        89 1.61595E+07 4.64264E+06 7.17122E+06-2.57675E+06 2.98234E+06-2.26722E+07
 -1        90-9.58276E+07-4.10692E+07-4.10693E+07 1.98617E+06-9.48521E+00-1.81428E+07
 -1        91-1.50055E+08-6.43097E+07-6.43097E+07-6.26076E+06 5.66482E+00-2.66312E+07
 -1        92-1.61445E-06-6.68515E-07-7.49948E-07-7.97947E+06 7.11116E-08-2.15344E+07
 -1        93 5.56021E+07 2.38296E+07 2.38296E+07-9.86804E+06-1.52878E+01-1.68961E+07
 -1        94-4.55793E+07 4.84418E+06-5.60936E+06 2.69544E+05-2.48606E+06-8.63372E+05
 -1        95-7.36497E+07 2.72553E+06-4.51602E+06-3.98673E+06 1.49950E+06-2.08808E+06
 -1        96-1.52492E-06-1.22818E-06-1.65775E-06-3.81720E+06-1.33179E-07-1.03016E+07
 -1        97 2.72905E+07 1.67339E+06-1.00993E+06-7.73725E+05-4.04674E+06-1.07591E+07
 -1        98-1.24116E+08-5.31923E+07-5.31924E+07-2.07559E+06 2.94897E+00-2.25597E+07
 -1        99-7.32474E+07-3.13912E+07-3.13912E+07-7.18232E+06 2.88932E+00-2.39071E+07
 -1       100 2.71414E+07 1.16318E+07 1.16318E+07-8.85864E+06-7.79750E+00-1.93831E+07
 -1       101-1.78759E+07-7.66075E+06-7.66078E+06-4.00819E+06-2.55653E+01-1.73485E+07
 -1       102 1.50055E+08 6.43097E+07 6.43097E+07-6.26076E+06-5.66482E+00-2.66312E+07
 -1       103 2.08650E+08 8.94221E+07 8.94221E+07-1.82037E+07-2.06526E+01-2.56240E+07
 -1       104 7.36497E+07-2.72553E+06 4.51602E+06-3.98673E+06-1.49950E+06-2.08808E+06
 -1       105 9.92420E+07-1.56749E+06 3.23355E+06-1.09701E+06-5.41301E+06-1.36974E+06
 -1       106 7.32474E+07 3.13912E+07 3.13912E+07-7.18232E+06-2.88932E+00-2.39071E+07
 -1       107 1.78980E+08 7.67050E+07 7.67050E+07-1.21667E+07-1.80739E+01-2.62976E+07
 -1       108 1.30187E+08 5.57935E+07 5.57935E+07-1.40956E+07-3.11698E+01-2.10877E+07
 -1       109-2.02529E+06-1.66242E+06-1.32174E+06 1.64652E+06-4.96988E+05 4.61309E+06
 -1       110-6.45484E+05-2.66054E+05-5.85698E+05 1.68288E+06-3.67480E+05 6.21159E+06
 -1       111 5.89081E+07-4.58595E+05-4.58280E+05 1.93929E+06-2.77830E+04 6.84960E+06
 -1       112 1.58953E+07-1.17128E+05-1.32055E+05 2.37149E+06-2.50457E+04 1.67576E+07
 -1       113-1.92818E+06-1.95669E+06-1.10786E+06 2.03348E+06-8.08345E+04 4.38695E+06
 -1       114-1.08564E+06-1.14846E+06-1.73067E+06 1.62340E+06-3.36979E+05 5.58581E+06
 -1       115-2.54604E+05-4.21962E+05-3.74406E+05 1.99447E+06 4.56205E+04 5.84029E+06
 -1       116 2.30148E+07 3.34798E+05-7.43503E+04-7.97048E+05 3.40303E+05-1.25006E+06
 -1       117 6.13258E+06-6.50178E+04 1.02559E+05-5.62770E+05 2.52066E+05 4.52572E+06
 -1       118 5.09037E+07-4.42628E+05-3.94717E+05 3.88470E+06 2.59785E+01 6.26960E+06
 -1       119 3.74546E+07-3.02809E+05-3.71979E+05 2.19271E+06-1.84471E+04 1.18973E+07
 -1       120 7.96487E+06-8.34024E+04-7.20693E+04 3.95180E+06 7.21840E+03 1.52276E+07
 -1       121 9.30164E+05 1.05617E+06 3.14376E+05 1.79219E+06-2.28253E+05 4.66706E+06
 -1       122-2.70550E+07 2.10891E+05 2.10206E+05 3.32748E+06-1.27600E+04 7.36398E+06
 -1       123-2.25171E+05 5.62335E+05 6.00698E+05 1.62841E+06-3.74803E+05 5.61701E+06
 -1       124 1.60934E+06 1.09281E+06 4.73931E+05 2.11767E+06 1.82912E+05 4.38881E+06
 -1       125-1.05701E+07-5.05238E+05 3.85621E+05-2.30953E+04 1.56292E+05-9.63281E+05
 -1       126-5.64862E+06 6.01204E+04 1.10150E+05 2.49515E+06-2.43414E+04 1.23473E+07
 -1       127-3.49320E+07 2.63977E+05 2.60235E+05 5.09899E+06 1.58810E+04 6.38167E+06
 -1       128 1.37138E+08 2.05134E+06 1.84909E+06 7.68106E+05 2.07122E+05 2.85929E+06
 -1       129 3.71789E+07 4.54611E+05 6.32600E+05 9.99182E+05 1.98851E+05 6.92882E+06
 -1       130 1.01106E+08-1.62216E+04 3.41024E+05-9.49577E+05-2.83680E+05-1.40548E+06
 -1       131 2.74029E+07 1.32976E+05-3.65407E+04-6.59076E+05-2.10728E+05 5.63299E+06
 -1       132 1.18675E+08 1.98728E+06 1.52847E+06 1.60295E+06 1.98536E+04 2.61699E+06
 -1       133 8.66185E+07 1.17015E+06 1.40613E+06 8.97228E+05 1.52365E+05 4.95679E+06
 -1       134 1.84218E+07 3.02088E+05 3.04847E+05 1.65543E+06-4.90583E+03 6.29353E+06
 -1       135-6.29841E+07-1.11587E+06-6.75496E+05 1.44364E+06 9.51258E+04 3.10961E+06
 -1       136-4.64355E+07 3.14338E+05-4.63511E+05 4.44802E+04-1.30287E+05-1.03713E+06
 -1       137-1.22439E+07-2.29605E+05-1.46563E+05 1.06526E+06 1.83809E+05 5.15760E+06
 -1       138-8.20420E+07-1.41194E+06-1.00980E+06 2.14489E+06-1.04714E+05 2.67925E+06
 -1       139 1.16555E+08-2.10085E+05-1.47070E+06-2.10633E+06 1.07787E+06-7.35376E+06
 -1       140 3.14262E+07-6.98250E+05 1.10254E+05-2.50503E+06 9.72134E+05-1.52598E+07
 -1       141 1.32782E+08-1.06533E+06-8.20849E+05 2.14520E+05-1.15526E+05 2.02872E+05
 -1       142 3.60644E+07-2.47428E+05-2.76064E+05 1.07781E+05-3.85891E+04-1.52159E+06
 -1       143 1.00697E+08 5.24707E+05-1.57733E+06-3.91255E+06 2.03713E+05-6.68060E+06
 -1       144 7.35838E+07-1.47901E+05 4.96916E+05-2.30024E+06 8.22721E+05-1.15488E+07
 -1       145 1.56166E+07 1.34850E+05 2.11387E+05-3.79315E+06 3.59076E+04-1.37863E+07
 -1       146-5.35308E+07-9.86433E+05 1.75838E+06-3.54037E+06 4.95039E+05-7.88514E+06
 -1       147-6.09834E+07 6.99300E+05 1.66974E+05-1.08530E+05-5.30581E+04 8.31676E+04
 -1       148-1.05034E+07-1.16001E+06-2.04347E+05-2.70646E+06 9.09605E+05-1.18639E+07
 -1       149-6.95394E+07-2.64858E+05 1.95237E+06-4.76293E+06-4.38191E+05-6.83112E+06
 -1       150-2.20421E+07-4.85952E+06-1.78423E+06-1.65470E+06-4.01112E+06-1.10109E+07
 -1       151-6.24878E+06 1.78477E+04-1.94633E+06-3.25281E+06-2.91042E+06-3.40407E+07
 -1       152 5.76774E+07 2.71078E+06 4.35888E+06 1.76634E+06-1.26452E+06 3.21476E+06
 -1       153 1.58885E+07 1.46317E+06 5.47074E+05 1.34434E+06-9.53662E+05-1.09656E+07
 -1       154-2.02458E+07-7.03176E+06-1.67693E+06-7.11201E+06-1.29112E+06-9.39456E+06
 -1       155-1.61595E+07-4.64264E+06-7.17122E+06-2.57675E+06-2.98234E+06-2.26722E+07
 -1       156-3.88304E+06-1.95505E+06-1.80448E+06-6.89242E+06-1.94554E+05-3.04227E+07
 -1       157 1.01234E+07 4.87364E+06-1.82235E+06-7.27741E+06-1.84220E+06-1.30944E+07
 -1       158-2.64897E+07 1.70801E+05-3.41771E+06 4.33020E+05-5.80761E+05 2.72071E+06
 -1       159 3.91129E+06 4.67989E+06 3.41335E+06-4.67332E+06-2.82254E+06-2.37796E+07
 -1       160 1.28087E+07 3.10971E+06-1.77748E+06-1.01005E+07 8.59854E+05-1.01714E+07
 -1       161-2.08650E+08-8.94221E+07-8.94221E+07-1.82037E+07 2.06526E+01-2.56240E+07
 -1       162-5.56021E+07-2.38296E+07-2.38296E+07-9.86804E+06 1.52878E+01-1.68961E+07
 -1       163-9.92420E+07 1.56749E+06-3.23355E+06-1.09701E+06 5.41301E+06-1.36974E+06
 -1       164-2.72905E+07-1.67339E+06 1.00993E+06-7.73725E+05 4.04674E+06-1.07591E+07
 -1       165-1.78980E+08-7.67050E+07-7.67050E+07-1.21667E+07 1.80739E+01-2.62976E+07
 -1       166-1.30187E+08-5.57935E+07-5.57935E+07-1.40956E+07 3.11698E+01-2.10877E+07
 -1       167-2.71414E+07-1.16318E+07-1.16318E+07-8.85864E+06 7.79750E+00-1.93831E+07
 -1       168 9.58276E+07 4.10692E+07 4.10693E+07 1.98617E+06 9.48521E+00-1.81428E+07
 -1       169 4.55793E+07-4.84418E+06 5.60936E+06 2.69544E+05 2.48606E+06-8.63372E+05
 -1       170 1.78759E+07 7.66075E+06 7.66078E+06-4.00819E+06 2.55653E+01-1.73485E+07
 -1       171 1.24116E+08 5.31923E+07 5.31924E+07-2.07559E+06-2.94897E+00-2.25597E+07
 -3
    1PSTEP                         9           1           1          
    1PGM                1.000000E+00                                  
    1PGK                2.119085E+05                                  
    1PHID                         -1                                  
    1PSUBC                         0                                  
    1PMODE                         5                                  
  100CL  105 7.32646E+01         171                     2    5MODAL      1
 -4  DISP        4    1
 -5  D1          1    2    1    0
 -5  D2          1    2    2    0
 -5  D3          1    2    3    0
 -5  ALL         1    2    0    0    1ALL
 -1         1-5.52943E-17-6.23153E-03-6.23153E-03
 -1         2 5.98480E-17-6.22897E-03 5.96745E-16
 -1         3-2.60209E-17 5.52076E-16 5.92842E-16
 -1         4-1.34333E-16 5.54244E-16-6.22897E-03
 -1         5 1.53957E-17-5.92082E-03-5.92082E-03
 -1         6 5.50775E-17-5.91839E-03 2.58474E-16
 -1         7-2.46114E-17 1.73472E-16 2.58907E-16
 -1         8-6.47269E-17 1.76725E-16-5.91839E-03
 -1         9-6.59430E-07-6.23034E-03-3.11544E-03
 -1        10 1.77809E-17-3.11466E-03 5.95010E-16
 -1        11-7.80626E-17 5.56846E-16-3.11466E-03
 -1        12 6.59430E-07-3.11544E-03-6.23034E-03
 -1        13-3.46945E-17-6.15263E-03-6.15263E-03
 -1        14 5.72459E-17-6.15033E-03 4.28097E-16
 -1        15-2.71051E-17 3.29706E-16 4.28206E-16
 -1        16-1.16985E-16 3.28703E-16-6.15033E-03
 -1        17-2.19219E-05-5.91974E-03-2.95993E-03
 -1        18 1.56125E-17-2.95945E-03 2.57823E-16
 -1        19-4.41270E-17 1.74557E-16-2.95945E-03
 -1        20 2.19219E-05-2.95993E-03-5.91974E-03
 -1        21-1.12215E-16 6.22897E-03 5.91541E-16
 -1        22-2.11853E-16 6.23153E-03-6.23153E-03
 -1        23-1.04029E-16 5.91839E-03 2.68665E-16
 -1        24-1.44524E-16 5.92082E-03-5.92082E-03
 -1        25-7.00395E-17 3.11466E-03 5.91541E-16
 -1        26 6.59430E-07 6.23034E-03-3.11544E-03
 -1        27-6.59430E-07 3.11544E-03-6.23034E-03
 -1        28-1.07987E-16 6.15033E-03 4.26091E-16
 -1        29-1.96783E-16 6.15263E-03-6.15263E-03
 -1        30-6.35342E-17 2.95945E-03 2.63678E-16
 -1        31 2.19219E-05 5.91974E-03-2.95993E-03
 -1        32-2.19219E-05 2.95993E-03-5.91974E-03
 -1        33 7.91468E-17-5.01909E-03-5.01909E-03
 -1        34 3.46945E-18-5.01749E-03 1.49620E-17
 -1        35-1.73472E-17 2.65115E-16 1.83230E-17
 -1        36 5.87638E-17 2.67039E-16-5.01749E-03
 -1        37 6.03901E-17-5.54036E-03-5.54036E-03
 -1        38 3.84350E-17-5.53804E-03 1.14275E-16
 -1        39-1.98951E-17 1.62576E-16 1.12757E-16
 -1        40 2.69695E-18 1.66967E-16-5.53804E-03
 -1        41-4.37195E-05-5.01832E-03-2.50942E-03
 -1        42-6.93889E-18-2.50881E-03 1.56125E-17
 -1        43 1.82146E-17 2.66443E-16-2.50881E-03
 -1        44 4.37195E-05-2.50942E-03-5.01832E-03
 -1        45-3.44776E-17 5.01749E-03 2.63461E-17
 -1        46 3.79471E-17 5.01909E-03-5.01909E-03
 -1        47-7.88215E-17 5.53804E-03 1.14709E-16
 -1        48-5.47793E-17 5.54036E-03-5.54036E-03
 -1        49-2.71051E-17 2.50881E-03 2.12504E-17
 -1        50 4.37195E-05 5.01832E-03-2.50942E-03
 -1        51-4.37195E-05 2.50942E-03-5.01832E-03
 -1        52-2.55872E-17-3.62668E-03-3.62668E-03
 -1        53-2.64545E-17-3.62443E-03 7.00395E-17
 -1        54-8.23994E-18 5.66170E-16 7.22079E-17
 -1        55-1.04083E-17 5.58310E-16-3.62443E-03
 -1        56 4.42354E-17-4.37447E-03-4.37447E-03
 -1        57-2.29851E-17-4.37317E-03 2.95987E-17
 -1        58-1.08420E-17 4.60647E-16 3.08998E-17
 -1        59 5.85469E-17 4.58726E-16-4.37317E-03
 -1        60-5.37566E-05-3.62578E-03-1.81255E-03
 -1        61-1.69136E-17-1.81264E-03 7.15573E-17
 -1        62-1.12757E-17 5.63894E-16-1.81264E-03
 -1        63 5.37566E-05-1.81255E-03-3.62578E-03
 -1        64 6.50521E-18 3.62443E-03 7.24247E-17
 -1        65 6.07153E-18 3.62668E-03-3.62668E-03
 -1        66-1.73472E-18 4.37317E-03 3.13334E-17
 -1        67 6.46184E-17 4.37447E-03-4.37447E-03
 -1        68-1.73472E-18 1.81264E-03 7.13405E-17
 -1        69 5.37566E-05 3.62578E-03-1.81255E-03
 -1        70-5.37566E-05 1.81255E-03-3.62578E-03
 -1        71-8.76035E-17-1.83649E-03-1.83649E-03
 -1        72 1.04083E-17-1.83904E-03 8.21825E-17
 -1        73-5.63785E-18 2.43512E-16 8.60857E-17
 -1        74-1.04517E-16 2.41994E-16-1.83904E-03
 -1        75-8.67362E-17-2.77967E-03-2.77967E-03
 -1        76-8.67362E-18-2.77620E-03 9.23740E-17
 -1        77-6.07153E-18 4.58401E-16 9.28077E-17
 -1        78-8.45678E-17 4.53630E-16-2.77620E-03
 -1        79-8.68171E-05-1.83750E-03-9.19175E-04
 -1        80 1.30104E-18-9.19017E-04 8.50015E-17
 -1        81-5.07407E-17 2.43078E-16-9.19017E-04
 -1        82 8.68171E-05-9.19175E-04-1.83750E-03
 -1        83-1.86483E-17 1.83904E-03 8.71699E-17
 -1        84-1.17528E-16 1.83649E-03-1.83649E-03
 -1        85-3.03577E-18 2.77620E-03 9.19403E-17
 -1        86-7.89299E-17 2.77967E-03-2.77967E-03
 -1        87-1.21431E-17 9.19017E-04 8.64109E-17
 -1        88 8.68171E-05 1.83750E-03-9.19175E-04
 -1        89-8.68171E-05 9.19175E-04-1.83750E-03
 -1        90 0.00000E+00 0.00000E+00 0.00000E+00
 -1        91 0.00000E+00 0.00000E+00 0.00000E+00
 -1        92 0.00000E+00 0.00000E+00 0.00000E+00
 -1        93 0.00000E+00 0.00000E+00 0.00000E+00
 -1        94-4.07660E-17-8.80217E-04-8.80217E-04
 -1        95 1.58294E-17-8.89896E-04 3.75405E-17
 -1        96-2.16840E-18 7.01479E-17 3.70255E-17
 -1        97-5.78964E-17 7.45931E-17-8.89896E-04
 -1        98 0.00000E+00 0.00000E+00 0.00000E+00
 -1        99 0.00000E+00 0.00000E+00 0.00000E+00
 -1       100 0.00000E+00 0.00000E+00 0.00000E+00
 -1       101 0.00000E+00 0.00000E+00 0.00000E+00
 -1       102 0.00000E+00 0.00000E+00 0.00000E+00
 -1       103 0.00000E+00 0.00000E+00 0.00000E+00
 -1       104-2.12504E-17 8.89896E-04 3.86518E-17
 -1       105-7.76289E-17 8.80217E-04-8.80217E-04
 -1       106 0.00000E+00 0.00000E+00 0.00000E+00
 -1       107 0.00000E+00 0.00000E+00 0.00000E+00
 -1       108 0.00000E+00 0.00000E+00 0.00000E+00
 -1       109 1.70870E-16-6.23153E-03 6.23153E-03
 -1       110 8.23994E-17 5.49907E-16 6.22897E-03
 -1       111 9.80119E-17-5.92082E-03 5.92082E-03
 -1       112 2.09251E-17 1.75966E-16 5.91839E-03
 -1       113 6.59430E-07-6.23034E-03 3.11544E-03
 -1       114-6.59430E-07-3.11544E-03 6.23034E-03
 -1       115 2.47198E-17 5.51642E-16 3.11466E-03
 -1       116 1.50054E-16-6.15263E-03 6.15263E-03
 -1       117 6.37511E-17 3.32139E-16 6.15033E-03
 -1       118 2.19219E-05-5.91974E-03 2.95993E-03
 -1       119-2.19219E-05-2.95993E-03 5.91974E-03
 -1       120-3.03577E-18 1.72713E-16 2.95945E-03
 -1       121-6.72205E-18 6.23153E-03 6.23153E-03
 -1       122-6.07153E-17 5.92082E-03 5.92082E-03
 -1       123 6.59430E-07 3.11544E-03 6.23034E-03
 -1       124-6.59430E-07 6.23034E-03 3.11544E-03
 -1       125-2.34188E-17 6.15263E-03 6.15263E-03
 -1       126 2.19219E-05 2.95993E-03 5.91974E-03
 -1       127-2.19219E-05 5.91974E-03 2.95993E-03
 -1       128-7.02563E-17-5.01909E-03 5.01909E-03
 -1       129-9.23740E-17 2.70400E-16 5.01749E-03
 -1       130 1.60462E-17-5.54036E-03 5.54036E-03
 -1       131-4.21755E-17 1.65368E-16 5.53804E-03
 -1       132 4.37195E-05-5.01832E-03 2.50942E-03
 -1       133-4.37195E-05-2.50942E-03 5.01832E-03
 -1       134-5.20417E-17 2.66436E-16 2.50881E-03
 -1       135-1.10589E-16 5.01909E-03 5.01909E-03
 -1       136-9.93129E-17 5.54036E-03 5.54036E-03
 -1       137 4.37195E-05 2.50942E-03 5.01832E-03
 -1       138-4.37195E-05 5.01832E-03 2.50942E-03
 -1       139-2.29851E-17-3.62668E-03 3.62668E-03
 -1       140-7.37257E-18 5.51425E-16 3.62443E-03
 -1       141-8.93383E-17-4.37447E-03 4.37447E-03
 -1       142-8.10983E-17 4.56422E-16 4.37317E-03
 -1       143 5.37566E-05-3.62578E-03 1.81255E-03
 -1       144-5.37566E-05-1.81255E-03 3.62578E-03
 -1       145-7.37257E-18 5.61779E-16 1.81264E-03
 -1       146 9.54098E-18 3.62668E-03 3.62668E-03
 -1       147-7.19910E-17 4.37447E-03 4.37447E-03
 -1       148 5.37566E-05 1.81255E-03 3.62578E-03
 -1       149-5.37566E-05 3.62578E-03 1.81255E-03
 -1       150 1.08854E-16-1.83649E-03 1.83649E-03
 -1       151 9.62772E-17 2.41127E-16 1.83904E-03
 -1       152 6.37511E-17-2.77967E-03 2.77967E-03
 -1       153 6.89553E-17 4.55040E-16 2.77620E-03
 -1       154 8.68171E-05-1.83750E-03 9.19175E-04
 -1       155-8.68171E-05-9.19175E-04 1.83750E-03
 -1       156 4.29344E-17 2.42428E-16 9.19017E-04
 -1       157 7.93636E-17 1.83649E-03 1.83649E-03
 -1       158 7.37257E-17 2.77967E-03 2.77967E-03
 -1       159 8.68171E-05 9.19175E-04 1.83750E-03
 -1       160-8.68171E-05 1.83750E-03 9.19175E-04
 -1       161 0.00000E+00 0.00000E+00 0.00000E+00
 -1       162 0.00000E+00 0.00000E+00 0.00000E+00
 -1       163 7.28584E-17-8.80217E-04 8.80217E-04
 -1       164 5.37764E-17 7.39968E-17 8.89896E-04
 -1       165 0.00000E+00 0.00000E+00 0.00000E+00
 -1       166 0.00000E+00 0.00000E+00 0.00000E+00
 -1       167 0.00000E+00 0.00000E+00 0.00000E+00
 -1       168 0.00000E+00 0.00000E+00 0.00000E+00
 -1       169 3.55618E-17 8.80217E-04 8.80217E-04
 -1       170 0.00000E+00 0.00000E+00 0.00000E+00
 -1       171 0.00000E+00 0.00000E+00 0.00000E+00
 -3
    1PSTEP                        10           1           1          
    1PGM                1.000000E+00                                  
    1PGK                2.119085E+05                                  
    1PHID                         -1                                  
    1PSUBC                         0                                  
    1PMODE                         5                                  
  100CL  105 7.32646E+01         171                     2    5MODAL      1
 -4  STRESS      6    1
 -5  SXX         1    4    1    1
 -5  SYY         1    4    2    2
 -5  SZZ         1    4    3    3
 -5  SXY         1    4    1    2
 -5  SYZ         1    4    2    3
 -5  SZX         1    4    3    1
 -1         1 5.42468E-06-6.81772E+05 6.81772E+05 2.18243E+05-4.28175E-06 2.18243E+05
 -1         2 9.45118E-07 1.52201E-06-2.64088E-07-5.57765E+05-3.02413E+05 1.55909E-07
 -1         3 1.47444E-06 3.26254E-06-2.63213E-07 4.61349E-06-4.12254E-06-1.41997E-06
 -1         4 5.36354E-06 1.61899E-06 1.61796E-05 2.24300E-06 3.02413E+05-5.57765E+05
 -1         5-1.14566E-05-5.81526E+05 5.81526E+05-1.02904E+07 4.81165E-06-1.02904E+07
 -1         6 4.58345E-06 9.30217E-06 2.83154E-06-3.72916E+07-2.37286E+05 8.94419E-07
 -1         7 1.03295E-06 2.78067E-06 4.02415E-06 1.36148E-06 5.29198E-07 1.12215E-06
 -1         8-8.76238E-06 4.32468E-06 1.40757E-05 4.94401E-07 2.37286E+05-3.72916E+07
 -1         9 2.41241E+06-1.13632E+04 9.65201E+05-1.68335E+05-1.37907E+05 2.04163E+05
 -1        10 2.57535E-06 5.48200E-06 1.03997E-06-1.74498E+05-1.64506E+05-4.43921E-07
 -1        11 3.06177E-06 3.24694E-06 5.44061E-06 3.37329E-06 1.64506E+05-1.74498E+05
 -1        12-2.41241E+06-9.65201E+05 1.13632E+04 2.04163E+05 1.37907E+05-1.68335E+05
 -1        13-4.89594E-06-5.70527E+05 5.70527E+05-5.00260E+06 1.34540E-06-5.00260E+06
 -1        14-2.95287E-07-1.70316E-06-8.73813E-07-1.88938E+07-2.39277E+05 4.30591E-07
 -1        15 4.49164E-07 1.73919E-06 2.27908E-07 1.75958E-06-5.57767E-08-1.50049E-07
 -1        16-6.08840E-06-3.47785E-06 6.38689E-06-1.09372E-07 2.39277E+05-1.88938E+07
 -1        17 2.38530E+06-1.86493E+04 7.92926E+05-2.37929E+07-9.78638E+04-1.76948E+06
 -1        18 3.24105E-06 7.17213E-06 3.59482E-06-1.52759E+07-1.39422E+05 8.68517E-07
 -1        19-5.27127E-06 1.38381E-06 5.76219E-06 1.04688E-06 1.39422E+05-1.52759E+07
 -1        20-2.38530E+06-7.92926E+05 1.86493E+04-1.76948E+06 9.78638E+04-2.37929E+07
 -1        21 5.50016E-06 1.47843E-05 6.47013E-06 5.57765E+05-3.02413E+05 1.99552E-07
 -1        22-9.45674E-06 6.81772E+05-6.81772E+05-2.18243E+05-5.83551E-06 2.18243E+05
 -1        23-3.36868E-06-5.85394E-06 1.11412E-06 3.72916E+07-2.37286E+05 4.68428E-07
 -1        24-2.07917E-05 5.81526E+05-5.81526E+05 1.02904E+07-1.53152E-07-1.02904E+07
 -1        25 2.12509E-06 6.06579E-06 2.08688E-06 1.74498E+05-1.64506E+05-4.49663E-07
 -1        26-2.41241E+06 1.13632E+04-9.65201E+05 1.68335E+05-1.37907E+05 2.04163E+05
 -1        27 2.41241E+06 9.65201E+05-1.13632E+04-2.04163E+05 1.37907E+05-1.68335E+05
 -1        28 1.80985E-06 6.58073E-06 2.18034E-06 1.88938E+07-2.39277E+05-2.53713E-08
 -1        29-1.25986E-05 5.70527E+05-5.70527E+05 5.00260E+06 6.37196E-07-5.00260E+06
 -1        30-5.14083E-07-2.36745E-07 3.40148E-06 1.52759E+07-1.39422E+05 9.21285E-07
 -1        31-2.38530E+06 1.86493E+04-7.92926E+05 2.37929E+07-9.78638E+04-1.76948E+06
 -1        32 2.38530E+06 7.92926E+05-1.86493E+04 1.76948E+06 9.78638E+04-2.37929E+07
 -1        33 5.16251E-07-4.52961E+05 4.52961E+05-1.86610E+07-4.63352E-06-1.86610E+07
 -1        34 9.92438E-06 2.49117E-06 3.23119E-06-7.23952E+07-2.08090E+05-3.11004E-07
 -1        35 1.58940E-07 1.21110E-06 2.62640E-06-5.37564E-06-6.25978E-07-5.91847E-07
 -1        36-4.88901E-06 1.85306E-06 1.00255E-05-1.88340E-06 2.08090E+05-7.23952E+07
 -1        37-6.75859E-06-6.11192E+05 6.11192E+05-1.44853E+07-7.99515E-07-1.44853E+07
 -1        38 5.52443E-06 9.55188E-07 2.53029E-07-5.48482E+07-2.69652E+05 4.72239E-07
 -1        39 1.35356E-07 1.84766E-06 1.02505E-06-6.18748E-07 3.97431E-07 1.06724E-07
 -1        40-1.13502E-05-9.62173E-07 4.29293E-06 5.95726E-07 2.69652E+05-5.48482E+07
 -1        41 1.89944E+06 1.83058E+05 8.42605E+05-4.55281E+07-9.91713E+04-2.61153E+06
 -1        42 4.64310E-06 6.07251E-07 2.85344E-06-2.94694E+07-1.08919E+05-4.39759E-07
 -1        43-2.10270E-06 2.00054E-06 6.31664E-06-3.58690E-06 1.08919E+05-2.94694E+07
 -1        44-1.89944E+06-8.42605E+05-1.83058E+05-2.61153E+06 9.91713E+04-4.55281E+07
 -1        45-1.24152E-05-7.69412E-06-7.17671E-07 7.23952E+07-2.08090E+05 7.43737E-07
 -1        46-1.63903E-05 4.52961E+05-4.52961E+05 1.86610E+07-1.75493E-06-1.86610E+07
 -1        47-7.97957E-06-2.03552E-06-1.37702E-06 5.48482E+07-2.69652E+05 3.79587E-07
 -1        48-2.33160E-05 6.11192E+05-6.11192E+05 1.44853E+07-3.31111E-07-1.44853E+07
 -1        49-6.40501E-06-3.49271E-06 5.06407E-09 2.94694E+07-1.08919E+05 3.12684E-08
 -1        50-1.89944E+06-1.83058E+05-8.42605E+05 4.55281E+07-9.91713E+04-2.61153E+06
 -1        51 1.89944E+06 8.42605E+05 1.83058E+05 2.61153E+06 9.91713E+04-4.55281E+07
 -1        52 1.72593E-05-4.17838E+05 4.17838E+05-2.83912E+07 1.82389E-06-2.83912E+07
 -1        53-2.04201E-06 5.54370E-07 1.03679E-06-9.47997E+07-1.25654E+05-4.71191E-07
 -1        54-7.62329E-07-3.41050E-07-9.70226E-07-1.22410E-06 3.19481E-07-1.41014E-06
 -1        55 1.69805E-05-3.06309E-06-8.54320E-06 7.72794E-07 1.25654E+05-9.47997E+07
 -1        56 8.28309E-06-2.44096E+05 2.44096E+05-2.35625E+07-4.46514E-07-2.35625E+07
 -1        57 2.95576E-06-1.18930E-06 1.06683E-06-8.35733E+07-7.12140E+04-1.15833E-07
 -1        58-1.05764E-06 1.12952E-07-6.01653E-07-1.98772E-06-8.71312E-07-7.96306E-07
 -1        59 6.25825E-06-8.98814E-07-1.29687E-06 8.06467E-07 7.12140E+04-8.35733E+07
 -1        60 2.25799E+06-9.26541E+04 4.36299E+05-6.16033E+07-2.84305E+04-5.90672E+06
 -1        61-9.34779E-07 7.50188E-07 7.62673E-07-3.91421E+07-9.72237E+04-7.23841E-07
 -1        62 8.28443E-06-1.84730E-06-2.88661E-06-5.02769E-07 9.72237E+04-3.91421E+07
 -1        63-2.25799E+06-4.36299E+05 9.26541E+04-5.90672E+06 2.84305E+04-6.16033E+07
 -1        64 1.90077E-07-3.57593E-06 7.04807E-07 9.47997E+07-1.25654E+05-7.42730E-07
 -1        65 1.73077E-05 4.17838E+05-4.17838E+05 2.83912E+07-3.55197E-06-2.83912E+07
 -1        66-5.26529E-06-2.83320E-06-1.05426E-06 8.35733E+07-7.12140E+04 3.03946E-07
 -1        67 1.98917E-06 2.44096E+05-2.44096E+05 2.35625E+07-1.98507E-06-2.35625E+07
 -1        68-3.64831E-07-1.55289E-06-6.05647E-07 3.91421E+07-9.72237E+04-1.22513E-06
 -1        69-2.25799E+06 9.26541E+04-4.36299E+05 6.16033E+07-2.84305E+04-5.90672E+06
 -1        70 2.25799E+06 4.36299E+05-9.26541E+04 5.90672E+06 2.84305E+04-6.16033E+07
 -1        71-8.73136E-06 4.60111E+05-4.60111E+05-2.29408E+07 2.55913E-06-2.29408E+07
 -1        72-3.29444E-06-5.16884E-07 1.45222E-06-1.28825E+08 1.30703E+05-2.53465E-07
 -1        73-2.98579E-07 3.20695E-07-8.59429E-08 5.59774E-06-2.80746E-07 1.03029E-06
 -1        74-2.97718E-06-1.81724E-07 6.29830E-06 5.24160E-07-1.30703E+05-1.28825E+08
 -1        75 6.13354E-06-1.09126E+06 1.09126E+06-2.56012E+07 1.58699E-06-2.56012E+07
 -1        76-3.14694E-06 7.69971E-07 1.02463E-06-1.11924E+08-5.53665E+05-2.52330E-07
 -1        77-1.37671E-06-1.60422E-06-2.11642E-06 1.25432E-06-4.19516E-07-1.23662E-07
 -1        78 8.78022E-06-1.26031E-06-8.44942E-07-6.67002E-07 5.53665E+05-1.11924E+08
 -1        79-2.87289E+06-2.16480E+04-5.95169E+05-7.58899E+07 2.49099E+04 1.89928E+06
 -1        80-1.42139E-06 4.49276E-07 1.31866E-06-5.10662E+07 1.05793E+05 4.11004E-07
 -1        81-2.44422E-06-9.10939E-07 1.72178E-06 3.51126E-06-1.05793E+05-5.10662E+07
 -1        82 2.87289E+06 5.95169E+05 2.16480E+04 1.89928E+06-2.49099E+04-7.58899E+07
 -1        83 3.31219E-06-1.34326E-06 1.34006E-06 1.28825E+08 1.30703E+05 6.80564E-07
 -1        84-3.46295E-06-4.60111E+05 4.60111E+05 2.29408E+07-2.36401E-06-2.29408E+07
 -1        85 1.67347E-06-2.71900E-06-8.09086E-08 1.11924E+08-5.53665E+05 1.93657E-07
 -1        86 1.19917E-05 1.09126E+06-1.09126E+06 2.56012E+07-1.83640E-06-2.56012E+07
 -1        87 1.51885E-06-3.87932E-07 6.81604E-07 5.10662E+07 1.05793E+05 7.81147E-07
 -1        88 2.87289E+06 2.16480E+04 5.95169E+05 7.58899E+07 2.49099E+04 1.89928E+06
 -1        89-2.87289E+06-5.95169E+05-2.16480E+04-1.89928E+06-2.49099E+04-7.58899E+07
 -1        90-1.01722E-05-3.06964E+01 3.06964E+01-6.47825E+07-1.28685E-07-6.47825E+07
 -1        91 7.13598E-06 3.06106E-06 3.09329E-06-6.61737E+07 3.74009E+00 2.61446E-06
 -1        92-4.08914E-07-1.81919E-07-1.69943E-07 1.42827E-06 1.10025E-07 2.39676E-06
 -1        93-1.71054E-05-7.27496E-06-7.38285E-06 2.15723E-06-3.74009E+00-6.61737E+07
 -1        94-9.06816E-06 2.81643E+06-2.81643E+06-4.39230E+07 2.33427E-07-4.39230E+07
 -1        95 1.76486E-06 1.06124E-06 1.35414E-06-9.74472E+07 1.35851E+06 6.13509E-08
 -1        96-7.73819E-07-1.76019E-07-5.21589E-07 1.80362E-06-2.23220E-07 6.23317E-07
 -1        97-9.79239E-06-6.25150E-07 2.82470E-06-5.96629E-07-1.35851E+06-9.74472E+07
 -1        98-1.16870E+07-5.00866E+06-5.00874E+06-6.54708E+07 1.73136E+00-3.24291E+07
 -1        99 3.20098E-06 1.37076E-06 1.34897E-06-3.30695E+07 2.00576E+00 2.53390E-06
 -1       100-8.14019E-06-3.46840E-06-3.42773E-06 1.81398E-06-2.00576E+00-3.30695E+07
 -1       101 1.16870E+07 5.00874E+06 5.00866E+06-3.24291E+07-1.73136E+00-6.54708E+07
 -1       102-8.87597E-06-3.65404E-06-3.82027E-06 6.61737E+07 3.74009E+00 2.59373E-06
 -1       103-2.59259E-05 3.06964E+01-3.06964E+01 6.47825E+07 1.78261E-08-6.47825E+07
 -1       104-2.32854E-06-1.26939E-06-2.76370E-07 9.74472E+07 1.35851E+06 4.03845E-07
 -1       105-1.29836E-05-2.81643E+06 2.81643E+06 4.39230E+07 4.00396E-08-4.39230E+07
 -1       106-4.68600E-06-2.02787E-06-2.02460E-06 3.30695E+07 2.00576E+00 2.47883E-06
 -1       107 1.16870E+07 5.00866E+06 5.00874E+06 6.54708E+07 1.73136E+00-3.24291E+07
 -1       108-1.16870E+07-5.00874E+06-5.00866E+06 3.24291E+07-1.73136E+00-6.54708E+07
 -1       109-7.12631E-06 6.81772E+05-6.81772E+05 2.18243E+05-6.66623E-06-2.18243E+05
 -1       110-5.97630E-06-4.59695E-06-1.96861E-05 1.21247E-07 3.02413E+05 5.57765E+05
 -1       111 9.30157E-06 5.81526E+05-5.81526E+05-1.02904E+07-3.71752E-07 1.02904E+07
 -1       112 1.43553E-05 1.53508E-06 4.82635E-06-2.28896E-07 2.37286E+05 3.72916E+07
 -1       113-2.41241E+06 1.13632E+04-9.65201E+05-1.68335E+05-1.37907E+05-2.04163E+05
 -1       114 2.41241E+06 9.65201E+05-1.13632E+04 2.04163E+05 1.37907E+05 1.68335E+05
 -1       115-7.38204E-07-6.99321E-07-4.14552E-06 2.79436E-06 1.64506E+05 1.74498E+05
 -1       116 7.71091E-07 5.70527E+05-5.70527E+05-5.00260E+06-1.12902E-06 5.00260E+06
 -1       117 6.08881E-06-2.61236E-07 6.55418E-08-1.05224E-06 2.39277E+05 1.88938E+07
 -1       118-2.38530E+06 1.86493E+04-7.92926E+05-2.37929E+07-9.78638E+04 1.76948E+06
 -1       119 2.38530E+06 7.92926E+05-1.86493E+04-1.76948E+06 9.78638E+04 2.37929E+07
 -1       120 7.46685E-06 2.37216E-06 4.50130E-06 4.29388E-07 1.39422E+05 1.52759E+07
 -1       121-9.41930E-06-6.81772E+05 6.81772E+05-2.18243E+05 1.90541E-06-2.18243E+05
 -1       122 6.48824E-06-5.81526E+05 5.81526E+05 1.02904E+07-1.46850E-07 1.02904E+07
 -1       123-2.41241E+06-9.65201E+05 1.13632E+04-2.04163E+05 1.37907E+05 1.68335E+05
 -1       124 2.41241E+06-1.13632E+04 9.65201E+05 1.68335E+05-1.37907E+05-2.04163E+05
 -1       125 2.54102E-06-5.70527E+05 5.70527E+05 5.00260E+06-2.15312E-07 5.00260E+06
 -1       126-2.38530E+06-7.92926E+05 1.86493E+04 1.76948E+06 9.78638E+04 2.37929E+07
 -1       127 2.38530E+06-1.86493E+04 7.92926E+05 2.37929E+07-9.78638E+04 1.76948E+06
 -1       128 2.49098E-05 4.52961E+05-4.52961E+05-1.86610E+07 4.91854E-06 1.86610E+07
 -1       129 2.87303E-06-5.48096E-06-6.16992E-06-1.91851E-06 2.08090E+05 7.23952E+07
 -1       130 1.67850E-05 6.11192E+05-6.11192E+05-1.44853E+07 2.98469E-06 1.44853E+07
 -1       131 1.34447E-05 2.39437E-06 4.65417E-06 3.24295E-07 2.69652E+05 5.48482E+07
 -1       132-1.89944E+06-1.83058E+05-8.42605E+05-4.55281E+07-9.91713E+04 2.61153E+06
 -1       133 1.89944E+06 8.42605E+05 1.83058E+05-2.61153E+06 9.91713E+04 4.55281E+07
 -1       134 1.10276E-06-2.51929E-06-2.49613E-06-3.82087E-06 1.08919E+05 2.94694E+07
 -1       135-3.40058E-06-4.52961E+05 4.52961E+05 1.86610E+07 8.79509E-07 1.86610E+07
 -1       136 5.45108E-06-6.11192E+05 6.11192E+05 1.44853E+07-2.10191E-06 1.44853E+07
 -1       137-1.89944E+06-8.42605E+05-1.83058E+05 2.61153E+06 9.91713E+04 4.55281E+07
 -1       138 1.89944E+06 1.83058E+05 8.42605E+05 4.55281E+07-9.91713E+04 2.61153E+06
 -1       139-1.89936E-05 4.17838E+05-4.17838E+05-2.83912E+07-2.97190E-06 2.83912E+07
 -1       140-2.18796E-05 2.22813E-06-6.56780E-06-3.13143E-07 1.25654E+05 9.47997E+07
 -1       141 2.84830E-06 2.44096E+05-2.44096E+05-2.35625E+07 1.39557E-06 2.35625E+07
 -1       142-8.96695E-06-9.79926E-08-1.46113E-06 1.01089E-06 7.12140E+04 8.35733E+07
 -1       143-2.25799E+06 9.26541E+04-4.36299E+05-6.16033E+07-2.84305E+04 5.90672E+06
 -1       144 2.25799E+06 4.36299E+05-9.26541E+04-5.90672E+06 2.84305E+04 6.16033E+07
 -1       145-1.04635E-05 1.87353E-06-2.70568E-06-5.13566E-07 9.72237E+04 3.91421E+07
 -1       146-1.92365E-05-4.17838E+05 4.17838E+05 2.83912E+07 4.70339E-06 2.83912E+07
 -1       147-1.20956E-05-2.44096E+05 2.44096E+05 2.35625E+07 8.81333E-07 2.35625E+07
 -1       148-2.25799E+06-4.36299E+05 9.26541E+04 5.90672E+06 2.84305E+04 6.16033E+07
 -1       149 2.25799E+06-9.26541E+04 4.36299E+05 6.16033E+07-2.84305E+04 5.90672E+06
 -1       150-3.73798E-06-4.60111E+05 4.60111E+05-2.29408E+07-1.97624E-06 2.29408E+07
 -1       151 3.17683E-06 1.31375E-06-2.05520E-06 1.54410E-06-1.30703E+05 1.28825E+08
 -1       152-1.29834E-05 1.09126E+06-1.09126E+06-2.56012E+07-5.66943E-07 2.56012E+07
 -1       153-1.02653E-05 8.53091E-07-5.19212E-07-2.03610E-07 5.53665E+05 1.11924E+08
 -1       154 2.87289E+06 2.16480E+04 5.95169E+05-7.58899E+07 2.49099E+04-1.89928E+06
 -1       155-2.87289E+06-5.95169E+05-2.16480E+04 1.89928E+06-2.49099E+04 7.58899E+07
 -1       156 2.18047E-06 1.55498E-06 5.85802E-07 3.22569E-06-1.05793E+05 5.10662E+07
 -1       157 6.96852E-06 4.60111E+05-4.60111E+05 2.29408E+07 3.33649E-07 2.29408E+07
 -1       158-4.83700E-06-1.09126E+06 1.09126E+06 2.56012E+07-6.89472E-07 2.56012E+07
 -1       159 2.87289E+06 5.95169E+05 2.16480E+04-1.89928E+06-2.49099E+04 7.58899E+07
 -1       160-2.87289E+06-2.16480E+04-5.95169E+05 7.58899E+07 2.49099E+04-1.89928E+06
 -1       161 2.45384E-05 3.06964E+01-3.06964E+01-6.47825E+07-1.07553E-07 6.47825E+07
 -1       162 1.60176E-05 6.84051E-06 6.94675E-06 2.11829E-06-3.74009E+00 6.61737E+07
 -1       163 1.04067E-05-2.81643E+06 2.81643E+06-4.39230E+07-9.37165E-07 4.39230E+07
 -1       164 9.91323E-06 1.37999E-06-4.29805E-07-7.69505E-08-1.35851E+06 9.74472E+07
 -1       165 1.16870E+07 5.00866E+06 5.00874E+06-6.54708E+07 1.73136E+00 3.24291E+07
 -1       166-1.16870E+07-5.00874E+06-5.00866E+06-3.24291E+07-1.73136E+00 6.54708E+07
 -1       167 7.47707E-06 3.28059E-06 3.14025E-06 1.77382E-06-2.00576E+00 3.30695E+07
 -1       168 8.44835E-06-3.06964E+01 3.06964E+01 6.47825E+07-1.51251E-07 6.47825E+07
 -1       169 8.31949E-06 2.81643E+06-2.81643E+06 4.39230E+07 4.59964E-07 4.39230E+07
 -1       170 1.16870E+07 5.00874E+06 5.00866E+06 3.24291E+07-1.73136E+00 6.54708E+07
 -1       171-1.16870E+07-5.00866E+06-5.00874E+06 6.54708E+07 1.73136E+00 3.24291E+07
 -3
    1PSTEP                        11           1           1          
    1PGM                1.000000E+00                                  
    1PGK                6.422119E+05                                  
    1PHID                         -1                                  
    1PSUBC                         0                                  
    1PMODE                         6                                  
  100CL  106 1.27544E+02         171                     2    6MODAL      1
 -4  DISP        4    1
 -5  D1          1    2    1    0
 -5  D2          1    2    2    0
 -5  D3          1    2    3    0
 -5  ALL         1    2    0    0    1ALL
 -1         1-5.07654E-03 1.33450E-07-1.33450E-07
 -1         2-5.08122E-03-3.22442E-16-1.22143E-07
 -1         3-5.08589E-03-3.49980E-16-5.80265E-16
 -1         4-5.08122E-03 1.22143E-07-5.41667E-16
 -1         5-4.82411E-03 3.78578E-05-3.78578E-05
 -1         6-4.82864E-03 1.00180E-16-3.78818E-05
 -1         7-4.83313E-03 1.41380E-16 3.23309E-16
 -1         8-4.82864E-03 3.78818E-05 3.72532E-16
 -1         9-5.08007E-03 6.65962E-08-1.27606E-07
 -1        10-5.08475E-03-3.27863E-16-6.15402E-08
 -1        11-5.08475E-03 6.15402E-08-5.65520E-16
 -1        12-5.08007E-03 1.27606E-07-6.65962E-08
 -1        13-5.01294E-03 1.89690E-05-1.89690E-05
 -1        14-5.01768E-03-1.10589E-16-1.89638E-05
 -1        15-5.02242E-03-1.53740E-16-7.58942E-17
 -1        16-5.01768E-03 1.89638E-05-3.27429E-17
 -1        17-4.82753E-03 1.89398E-05-3.78743E-05
 -1        18-4.83204E-03 1.02782E-16-1.89550E-05
 -1        19-4.83204E-03 1.89550E-05 3.49980E-16
 -1        20-4.82753E-03 3.78743E-05-1.89398E-05
 -1        21-5.08122E-03-3.98986E-16 1.22143E-07
 -1        22-5.07654E-03 1.33450E-07 1.33450E-07
 -1        23-4.82864E-03 3.65376E-17 3.78818E-05
 -1        24-4.82411E-03 3.78578E-05 3.78578E-05
 -1        25-5.08475E-03-3.47812E-16 6.15402E-08
 -1        26-5.08007E-03 6.65962E-08 1.27606E-07
 -1        27-5.08007E-03 1.27606E-07 6.65962E-08
 -1        28-5.01768E-03-1.50054E-16 1.89638E-05
 -1        29-5.01294E-03 1.89690E-05 1.89690E-05
 -1        30-4.83204E-03 5.37764E-17 1.89550E-05
 -1        31-4.82753E-03 1.89398E-05 3.78743E-05
 -1        32-4.82753E-03 3.78743E-05 1.89398E-05
 -1        33-4.09234E-03 7.18858E-05-7.18858E-05
 -1        34-4.09632E-03 1.28370E-16-7.20322E-05
 -1        35-4.10018E-03 1.21431E-16 3.40439E-16
 -1        36-4.09632E-03 7.20322E-05 3.55185E-16
 -1        37-4.51473E-03 5.50699E-05-5.50699E-05
 -1        38-4.51901E-03 2.03830E-16-5.50350E-05
 -1        39-4.52331E-03 1.68051E-16 4.88325E-16
 -1        40-4.51901E-03 5.50350E-05 5.19116E-16
 -1        41-4.09526E-03 3.59952E-05-7.19553E-05
 -1        42-4.09919E-03 1.26282E-16-3.60625E-05
 -1        43-4.09919E-03 3.60625E-05 3.45427E-16
 -1        44-4.09526E-03 7.19553E-05-3.59952E-05
 -1        45-4.09632E-03 1.06685E-16 7.20322E-05
 -1        46-4.09234E-03 7.18858E-05 7.18858E-05
 -1        47-4.51901E-03 1.43332E-16 5.50350E-05
 -1        48-4.51473E-03 5.50699E-05 5.50699E-05
 -1        49-4.09919E-03 1.10589E-16 3.60625E-05
 -1        50-4.09526E-03 3.59952E-05 7.19553E-05
 -1        51-4.09526E-03 7.19553E-05 3.59952E-05
 -1        52-2.95258E-03 9.80500E-05-9.80500E-05
 -1        53-2.95696E-03-1.84748E-16-9.87783E-05
 -1        54-2.96110E-03-1.68485E-16-3.38705E-16
 -1        55-2.95696E-03 9.87783E-05-3.43475E-16
 -1        56-3.56787E-03 8.56852E-05-8.56852E-05
 -1        57-3.57106E-03-1.82146E-17-8.55481E-05
 -1        58-3.57438E-03-3.18823E-17-3.36103E-18
 -1        59-3.57106E-03 8.55481E-05-4.33681E-19
 -1        60-2.95560E-03 4.89726E-05-9.84446E-05
 -1        61-2.95984E-03-1.76074E-16-4.93671E-05
 -1        62-2.95984E-03 4.93671E-05-3.40873E-16
 -1        63-2.95560E-03 9.84446E-05-4.89726E-05
 -1        64-2.95696E-03-1.74340E-16 9.87783E-05
 -1        65-2.95258E-03 9.80500E-05 9.80500E-05
 -1        66-3.57106E-03-3.51282E-17 8.55481E-05
 -1        67-3.56787E-03 8.56852E-05 8.56852E-05
 -1        68-2.95984E-03-1.69258E-16 4.93671E-05
 -1        69-2.95560E-03 4.89726E-05 9.84446E-05
 -1        70-2.95560E-03 9.84446E-05 4.89726E-05
 -1        71-1.51815E-03 1.05987E-04-1.05987E-04
 -1        72-1.52953E-03-1.96891E-16-1.07220E-04
 -1        73-1.54120E-03-1.94723E-16-3.91397E-16
 -1        74-1.52953E-03 1.07220E-04-3.96818E-16
 -1        75-2.26704E-03 1.08391E-04-1.08391E-04
 -1        76-2.26779E-03-2.43295E-16-1.07762E-04
 -1        77-2.26854E-03-2.42428E-16-4.87891E-16
 -1        78-2.26779E-03 1.07762E-04-4.92661E-16
 -1        79-1.52347E-03 5.32512E-05-1.06545E-04
 -1        80-1.53501E-03-1.91687E-16-5.37672E-05
 -1        81-1.53501E-03 5.37672E-05-3.93999E-16
 -1        82-1.52347E-03 1.06545E-04-5.32512E-05
 -1        83-1.52953E-03-1.95156E-16 1.07220E-04
 -1        84-1.51815E-03 1.05987E-04 1.05987E-04
 -1        85-2.26779E-03-2.42861E-16 1.07762E-04
 -1        86-2.26704E-03 1.08391E-04 1.08391E-04
 -1        87-1.53501E-03-1.91253E-16 5.37672E-05
 -1        88-1.52347E-03 5.32512E-05 1.06545E-04
 -1        89-1.52347E-03 1.06545E-04 5.32512E-05
 -1        90 0.00000E+00 0.00000E+00 0.00000E+00
 -1        91 0.00000E+00 0.00000E+00 0.00000E+00
 -1        92 0.00000E+00 0.00000E+00 0.00000E+00
 -1        93 0.00000E+00 0.00000E+00 0.00000E+00
 -1        94-7.40484E-04 1.27319E-04-1.27319E-04
 -1        95-7.25991E-04-7.63278E-17-1.27605E-04
 -1        96-7.11347E-04-7.89299E-17-1.54824E-16
 -1        97-7.25991E-04 1.27605E-04-1.50596E-16
 -1        98 0.00000E+00 0.00000E+00 0.00000E+00
 -1        99 0.00000E+00 0.00000E+00 0.00000E+00
 -1       100 0.00000E+00 0.00000E+00 0.00000E+00
 -1       101 0.00000E+00 0.00000E+00 0.00000E+00
 -1       102 0.00000E+00 0.00000E+00 0.00000E+00
 -1       103 0.00000E+00 0.00000E+00 0.00000E+00
 -1       104-7.25991E-04-7.45931E-17 1.27605E-04
 -1       105-7.40484E-04 1.27319E-04 1.27319E-04
 -1       106 0.00000E+00 0.00000E+00 0.00000E+00
 -1       107 0.00000E+00 0.00000E+00 0.00000E+00
 -1       108 0.00000E+00 0.00000E+00 0.00000E+00
 -1       109-5.07654E-03-1.33450E-07-1.33450E-07
 -1       110-5.08122E-03-1.22143E-07-6.15827E-16
 -1       111-4.82411E-03-3.78578E-05-3.78578E-05
 -1       112-4.82864E-03-3.78818E-05 3.00432E-16
 -1       113-5.08007E-03-6.65962E-08-1.27606E-07
 -1       114-5.08007E-03-1.27606E-07-6.65962E-08
 -1       115-5.08475E-03-6.15402E-08-6.00214E-16
 -1       116-5.01294E-03-1.89690E-05-1.89690E-05
 -1       117-5.01768E-03-1.89638E-05-1.14058E-16
 -1       118-4.82753E-03-1.89398E-05-3.78743E-05
 -1       119-4.82753E-03-3.78743E-05-1.89398E-05
 -1       120-4.83204E-03-1.89550E-05 3.11383E-16
 -1       121-5.07654E-03-1.33450E-07 1.33450E-07
 -1       122-4.82411E-03-3.78578E-05 3.78578E-05
 -1       123-5.08007E-03-1.27606E-07 6.65962E-08
 -1       124-5.08007E-03-6.65962E-08 1.27606E-07
 -1       125-5.01294E-03-1.89690E-05 1.89690E-05
 -1       126-4.82753E-03-3.78743E-05 1.89398E-05
 -1       127-4.82753E-03-1.89398E-05 3.78743E-05
 -1       128-4.09234E-03-7.18858E-05-7.18858E-05
 -1       129-4.09632E-03-7.20322E-05 3.38705E-16
 -1       130-4.51473E-03-5.50699E-05-5.50699E-05
 -1       131-4.51901E-03-5.50350E-05 4.69243E-16
 -1       132-4.09526E-03-3.59952E-05-7.19553E-05
 -1       133-4.09526E-03-7.19553E-05-3.59952E-05
 -1       134-4.09919E-03-3.60625E-05 3.36970E-16
 -1       135-4.09234E-03-7.18858E-05 7.18858E-05
 -1       136-4.51473E-03-5.50699E-05 5.50699E-05
 -1       137-4.09526E-03-7.19553E-05 3.59952E-05
 -1       138-4.09526E-03-3.59952E-05 7.19553E-05
 -1       139-2.95258E-03-9.80500E-05-9.80500E-05
 -1       140-2.95696E-03-9.87783E-05-3.44017E-16
 -1       141-3.56787E-03-8.56852E-05-8.56852E-05
 -1       142-3.57106E-03-8.55481E-05-8.23994E-18
 -1       143-2.95560E-03-4.89726E-05-9.84446E-05
 -1       144-2.95560E-03-9.84446E-05-4.89726E-05
 -1       145-2.95984E-03-4.93671E-05-3.40223E-16
 -1       146-2.95258E-03-9.80500E-05 9.80500E-05
 -1       147-3.56787E-03-8.56852E-05 8.56852E-05
 -1       148-2.95560E-03-9.84446E-05 4.89726E-05
 -1       149-2.95560E-03-4.89726E-05 9.84446E-05
 -1       150-1.51815E-03-1.05987E-04-1.05987E-04
 -1       151-1.52953E-03-1.07220E-04-3.97469E-16
 -1       152-2.26704E-03-1.08391E-04-1.08391E-04
 -1       153-2.26779E-03-1.07762E-04-4.94396E-16
 -1       154-1.52347E-03-5.32512E-05-1.06545E-04
 -1       155-1.52347E-03-1.06545E-04-5.32512E-05
 -1       156-1.53501E-03-5.37672E-05-3.91831E-16
 -1       157-1.51815E-03-1.05987E-04 1.05987E-04
 -1       158-2.26704E-03-1.08391E-04 1.08391E-04
 -1       159-1.52347E-03-1.06545E-04 5.32512E-05
 -1       160-1.52347E-03-5.32512E-05 1.06545E-04
 -1       161 0.00000E+00 0.00000E+00 0.00000E+00
 -1       162 0.00000E+00 0.00000E+00 0.00000E+00
 -1       163-7.40484E-04-1.27319E-04-1.27319E-04
 -1       164-7.25991E-04-1.27605E-04-1.51355E-16
 -1       165 0.00000E+00 0.00000E+00 0.00000E+00
 -1       166 0.00000E+00 0.00000E+00 0.00000E+00
 -1       167 0.00000E+00 0.00000E+00 0.00000E+00
 -1       168 0.00000E+00 0.00000E+00 0.00000E+00
 -1       169-7.40484E-04-1.27319E-04 1.27319E-04
 -1       170 0.00000E+00 0.00000E+00 0.00000E+00
 -1       171 0.00000E+00 0.00000E+00 0.00000E+00
 -3
    1PSTEP                        12           1           1          
    1PGM                1.000000E+00                                  
    1PGK                6.422119E+05                                  
    1PHID                         -1                                  
    1PSUBC                         0                                  
    1PMODE                         6                                  
  100CL  106 1.27544E+02         171                     2    6MODAL      1
 -4  STRESS      6    1
 -5  SXX         1    4    1    1
 -5  SYY         1    4    2    2
 -5  SZZ         1    4    3    3
 -5  SXY         1    4    1    2
 -5  SYZ         1    4    2    3
 -5  SZX         1    4    3    1
 -1         1-2.01832E+05-1.04265E+04-1.04265E+04 4.29379E+03-3.71402E+03-4.29379E+03
 -1         2-1.56245E+05 6.85085E+03 2.95374E+03-9.70799E-07 7.19932E-06-4.35881E+03
 -1         3-9.45417E+04 2.98699E+04 2.98699E+04 8.32975E-06 4.72037E-06-3.44796E-06
 -1         4-1.56245E+05 2.95374E+03 6.85085E+03 4.35881E+03 6.72416E-06-4.55118E-06
 -1         5-5.04342E+07-7.33892E+03-7.33892E+03 1.23730E+04 1.29299E+04-1.23730E+04
 -1         6-5.04877E+07 9.47157E+03-1.38911E+04-3.08182E-06 7.70599E-06-1.09787E+04
 -1         7-5.05183E+07 2.73763E+04 2.73763E+04-3.86233E-06-3.85589E-06-2.62880E-06
 -1         8-5.04877E+07-1.38911E+04 9.47157E+03 1.09787E+04-7.30916E-06-3.49574E-06
 -1         9-1.85358E+05-3.54658E+03-5.55385E+03-3.73981E+03-2.57612E+03-4.40983E+03
 -1        10-1.32170E+05 1.63473E+04 1.44575E+04 5.50657E-06 2.03054E-06 5.04901E+03
 -1        11-1.32170E+05 1.44575E+04 1.63473E+04-5.04901E+03 6.18719E-06-3.83941E-06
 -1        12-1.85358E+05-5.55385E+03-3.54658E+03 4.40983E+03-2.57612E+03 3.73981E+03
 -1        13-2.52374E+07 1.16564E+04 1.16564E+04-7.88385E+02 1.04234E+03 7.88385E+02
 -1        14-2.52509E+07 2.31102E+04 5.91469E+03-2.30394E-06 2.17713E-06 6.41155E+02
 -1        15-2.52610E+07 2.74605E+04 2.74605E+04-2.43027E-06 3.42057E-06-2.20663E-07
 -1        16-2.52509E+07 5.91469E+03 2.31102E+04-6.41155E+02-1.02450E-06-1.27484E-06
 -1        17-5.04816E+07-5.27768E+03-1.55690E+04-2.78335E+03 7.41001E+03-1.14861E+04
 -1        18-5.05234E+07 1.35916E+04 5.20224E+02-3.21465E-06 1.53746E-05 5.68629E+03
 -1        19-5.05234E+07 5.20224E+02 1.35916E+04-5.68629E+03-3.62178E-06-3.13593E-06
 -1        20-5.04816E+07-1.55690E+04-5.27768E+03 1.14861E+04 7.41001E+03 2.78335E+03
 -1        21-1.56245E+05 6.85085E+03 2.95374E+03-5.38760E-06-1.84819E-05 4.35881E+03
 -1        22-2.01832E+05-1.04265E+04-1.04265E+04 4.29379E+03 3.71402E+03 4.29379E+03
 -1        23-5.04877E+07 9.47157E+03-1.38911E+04-8.58424E-07 7.33369E-06 1.09787E+04
 -1        24-5.04342E+07-7.33892E+03-7.33892E+03 1.23730E+04-1.29299E+04 1.23730E+04
 -1        25-1.32170E+05 1.63473E+04 1.44575E+04 4.47963E-06-2.16771E-06-5.04901E+03
 -1        26-1.85358E+05-3.54658E+03-5.55385E+03-3.73981E+03 2.57612E+03 4.40983E+03
 -1        27-1.85358E+05-5.55385E+03-3.54658E+03 4.40983E+03 2.57612E+03-3.73981E+03
 -1        28-2.52509E+07 2.31102E+04 5.91469E+03-2.09373E-06 6.16764E-06-6.41155E+02
 -1        29-2.52374E+07 1.16564E+04 1.16564E+04-7.88385E+02-1.04234E+03-7.88385E+02
 -1        30-5.05234E+07 1.35916E+04 5.20224E+02-1.55522E-06-1.27189E-05-5.68629E+03
 -1        31-5.04816E+07-5.27768E+03-1.55690E+04-2.78335E+03-7.41001E+03 1.14861E+04
 -1        32-5.04816E+07-1.55690E+04-5.27768E+03 1.14861E+04-7.41001E+03-2.78335E+03
 -1        33-9.58715E+07-1.31321E+05-1.31321E+05-1.17377E+04 4.05255E+04 1.17377E+04
 -1        34-9.60173E+07 1.25172E+04-6.39333E+04 5.53636E-06 2.23697E-06 4.44482E+03
 -1        35-9.61446E+07 6.09237E+04 6.09237E+04 1.61331E-06-1.82666E-06 9.16078E-06
 -1        36-9.60173E+07-6.39333E+04 1.25172E+04-4.44482E+03 2.55746E-06 1.03786E-05
 -1        37-7.31532E+07 4.65375E+04 4.65375E+04-7.90657E+03-1.02417E+04 7.90657E+03
 -1        38-7.31756E+07 1.44127E+05 5.72514E+04 2.82443E-06-1.70525E-06 7.56397E+03
 -1        39-7.32135E+07 1.42064E+05 1.42064E+05 1.20376E-06-3.78267E-06 1.65625E-06
 -1        40-7.31756E+07 5.72514E+04 1.44127E+05-7.56397E+03-5.32663E-06 3.57003E-06
 -1        41-9.59758E+07-6.97446E+04-1.09101E+05 1.48283E+04 3.17513E+04 7.67479E+03
 -1        42-9.61131E+07 2.49131E+04-1.21814E+04 3.15128E-06 1.50259E-06-7.24479E+03
 -1        43-9.61131E+07-1.21814E+04 2.49131E+04 7.24479E+03-8.30842E-07 9.05294E-06
 -1        44-9.59758E+07-1.09101E+05-6.97446E+04-7.67479E+03 3.17513E+04-1.48283E+04
 -1        45-9.60173E+07 1.25172E+04-6.39333E+04 2.76135E-06 1.76544E-06-4.44482E+03
 -1        46-9.58715E+07-1.31321E+05-1.31321E+05-1.17377E+04-4.05255E+04-1.17377E+04
 -1        47-7.31756E+07 1.44127E+05 5.72514E+04-9.43219E-08 8.46063E-06-7.56397E+03
 -1        48-7.31532E+07 4.65375E+04 4.65375E+04-7.90657E+03 1.02417E+04-7.90657E+03
 -1        49-9.61131E+07 2.49131E+04-1.21814E+04 1.26779E-06-3.25808E-07 7.24479E+03
 -1        50-9.59758E+07-6.97446E+04-1.09101E+05 1.48283E+04-3.17513E+04-7.67479E+03
 -1        51-9.59758E+07-1.09101E+05-6.97446E+04-7.67479E+03-3.17513E+04 1.48283E+04
 -1        52-1.31604E+08-2.55448E+05-2.55448E+05 9.20345E+04 2.61612E+05-9.20345E+04
 -1        53-1.32717E+08-8.37022E+05-5.21304E+05 4.68708E-06 3.27042E-06-1.07487E+05
 -1        54-1.33778E+08-9.41264E+05-9.41264E+05 3.89900E-06 1.05368E-06 6.13570E-06
 -1        55-1.32717E+08-5.21304E+05-8.37022E+05 1.07487E+05-6.14222E-07 8.70514E-06
 -1        56-1.13887E+08 1.56888E+05 1.56888E+05 2.63328E+04-2.56670E+04-2.63328E+04
 -1        57-1.13877E+08 1.36323E+05 7.92199E+04 3.50275E-06 2.65620E-07-2.10460E+04
 -1        58-1.13837E+08 1.27567E+05 1.27567E+05 1.07568E-06-1.30960E-06 4.74855E-06
 -1        59-1.13877E+08 7.92199E+04 1.36323E+05 2.10460E+04 1.64723E-06 4.90875E-06
 -1        60-1.32253E+08-5.76846E+05-4.09608E+05 1.23358E+05 1.82128E+05-9.87855E+04
 -1        61-1.33339E+08-9.09921E+05-7.61441E+05 4.00178E-06 2.43216E-06-1.19408E+05
 -1        62-1.33339E+08-7.61441E+05-9.09921E+05 1.19408E+05-4.76550E-07 6.79767E-06
 -1        63-1.32253E+08-4.09608E+05-5.76846E+05 9.87855E+04 1.82128E+05-1.23358E+05
 -1        64-1.32717E+08-8.37022E+05-5.21304E+05 4.41585E-07-1.71997E-06 1.07487E+05
 -1        65-1.31604E+08-2.55448E+05-2.55448E+05 9.20345E+04-2.61612E+05 9.20345E+04
 -1        66-1.13877E+08 1.36323E+05 7.92199E+04-7.16733E-07 2.65536E-07 2.10460E+04
 -1        67-1.13887E+08 1.56888E+05 1.56888E+05 2.63328E+04 2.56670E+04 2.63328E+04
 -1        68-1.33339E+08-9.09921E+05-7.61441E+05 2.05318E-06-8.90428E-07 1.19408E+05
 -1        69-1.32253E+08-5.76846E+05-4.09608E+05 1.23358E+05-1.82128E+05 9.87855E+04
 -1        70-1.32253E+08-4.09608E+05-5.76846E+05 9.87855E+04-1.82128E+05 1.23358E+05
 -1        71-1.63817E+08-1.02347E+07-1.02347E+07-1.81940E+06 3.07984E+05 1.81940E+06
 -1        72-1.66773E+08-1.03798E+07-1.05115E+07-4.38932E-06 2.86876E-06 1.84640E+06
 -1        73-1.70156E+08-1.12980E+07-1.12980E+07-3.28649E-06-7.18841E-07-7.46330E-06
 -1        74-1.66773E+08-1.05115E+07-1.03798E+07-1.84640E+06 1.54404E-06-8.79349E-06
 -1        75-1.43267E+08 3.05693E+05 3.05693E+05-5.00359E+04-2.10434E+05 5.00359E+04
 -1        76-1.42247E+08 1.03922E+06 6.36020E+05 4.65283E-07 1.04915E-06 6.59721E+04
 -1        77-1.41287E+08 1.18434E+06 1.18434E+06 1.54164E-06-1.75381E-07 2.71240E-07
 -1        78-1.42247E+08 6.36020E+05 1.03922E+06-6.59721E+04 1.74949E-06 5.64396E-07
 -1        79-1.65378E+08-1.03452E+07-1.04288E+07 7.92179E+04 2.51202E+05 1.82891E+06
 -1        80-1.68546E+08-1.08943E+07-1.09423E+07-3.70893E-06 8.74716E-08-8.16610E+04
 -1        81-1.68546E+08-1.09423E+07-1.08943E+07 8.16610E+04 3.85389E-07-8.15251E-06
 -1        82-1.65378E+08-1.04288E+07-1.03452E+07-1.82891E+06 2.51202E+05-7.92179E+04
 -1        83-1.66773E+08-1.03798E+07-1.05115E+07-3.95841E-06-2.02061E-06-1.84640E+06
 -1        84-1.63817E+08-1.02347E+07-1.02347E+07-1.81940E+06-3.07984E+05-1.81940E+06
 -1        85-1.42247E+08 1.03922E+06 6.36020E+05-7.61356E-07-1.15053E-06-6.59721E+04
 -1        86-1.43267E+08 3.05693E+05 3.05693E+05-5.00359E+04 2.10434E+05-5.00359E+04
 -1        87-1.68546E+08-1.08943E+07-1.09423E+07-3.47727E-06-3.46401E-07 8.16610E+04
 -1        88-1.65378E+08-1.03452E+07-1.04288E+07 7.92179E+04-2.51202E+05-1.82891E+06
 -1        89-1.65378E+08-1.04288E+07-1.03452E+07-1.82891E+06-2.51202E+05 7.92179E+04
 -1        90-1.94350E+08-8.32952E+07-8.32952E+07 1.55112E+07-3.11990E+00-1.55112E+07
 -1        91-1.85013E+08-7.92938E+07-7.92938E+07-4.16821E-06-6.55927E-10-1.55077E+07
 -1        92-1.75558E+08-7.52415E+07-7.52415E+07-4.62109E-06 1.20458E-09-8.76541E-06
 -1        93-1.85013E+08-7.92938E+07-7.92938E+07 1.55077E+07-3.53375E-09-7.87154E-06
 -1        94-1.45849E+08 9.95582E+06 9.95582E+06 1.73232E+06 5.23010E+04-1.73232E+06
 -1        95-1.47031E+08 9.96640E+06 9.79888E+06-1.84821E-06 1.82767E-06-1.76339E+06
 -1        96-1.48437E+08 9.48451E+06 9.48451E+06-1.45216E-06-2.59463E-07-3.00596E-06
 -1        97-1.47031E+08 9.79888E+06 9.96640E+06 1.76339E+06-3.83556E-07-3.64031E-06
 -1        98-1.89646E+08-8.12742E+07-8.12742E+07 7.76556E+06 2.11827E+00-1.55073E+07
 -1        99-1.80253E+08-7.72486E+07-7.72486E+07-4.27946E-06-7.91545E-12-7.75998E+06
 -1       100-1.80253E+08-7.72486E+07-7.72486E+07 7.75998E+06-1.42636E-09-8.33685E-06
 -1       101-1.89646E+08-8.12742E+07-8.12742E+07 1.55073E+07 2.11827E+00-7.76556E+06
 -1       102-1.85013E+08-7.92938E+07-7.92938E+07-3.91045E-06-5.29099E-10 1.55077E+07
 -1       103-1.94350E+08-8.32952E+07-8.32952E+07 1.55112E+07 3.11990E+00 1.55112E+07
 -1       104-1.47031E+08 9.96640E+06 9.79888E+06-1.53156E-06-1.32788E-06 1.76339E+06
 -1       105-1.45849E+08 9.95582E+06 9.95582E+06 1.73232E+06-5.23010E+04 1.73232E+06
 -1       106-1.80253E+08-7.72486E+07-7.72486E+07-4.16792E-06-1.87578E-09 7.75998E+06
 -1       107-1.89646E+08-8.12742E+07-8.12742E+07 7.76556E+06-2.11827E+00 1.55073E+07
 -1       108-1.89646E+08-8.12742E+07-8.12742E+07 1.55073E+07-2.11827E+00 7.76556E+06
 -1       109-2.01832E+05-1.04265E+04-1.04265E+04-4.29379E+03 3.71402E+03-4.29379E+03
 -1       110-1.56245E+05 2.95374E+03 6.85085E+03-4.35881E+03 4.43148E-06-1.48591E-06
 -1       111-5.04342E+07-7.33892E+03-7.33892E+03-1.23730E+04-1.29299E+04-1.23730E+04
 -1       112-5.04877E+07-1.38911E+04 9.47157E+03-1.09787E+04-4.84474E-08-5.46516E-06
 -1       113-1.85358E+05-3.54658E+03-5.55385E+03 3.73981E+03 2.57612E+03-4.40983E+03
 -1       114-1.85358E+05-5.55385E+03-3.54658E+03-4.40983E+03 2.57612E+03 3.73981E+03
 -1       115-1.32170E+05 1.44575E+04 1.63473E+04 5.04901E+03 4.71750E-06-3.56441E-06
 -1       116-2.52374E+07 1.16564E+04 1.16564E+04 7.88385E+02-1.04234E+03 7.88385E+02
 -1       117-2.52509E+07 5.91469E+03 2.31102E+04 6.41155E+02 2.97927E-06-1.61559E-06
 -1       118-5.04816E+07-5.27768E+03-1.55690E+04 2.78335E+03-7.41001E+03-1.14861E+04
 -1       119-5.04816E+07-1.55690E+04-5.27768E+03-1.14861E+04-7.41001E+03 2.78335E+03
 -1       120-5.05234E+07 5.20224E+02 1.35916E+04 5.68629E+03-1.89497E-06-4.00426E-06
 -1       121-2.01832E+05-1.04265E+04-1.04265E+04-4.29379E+03-3.71402E+03 4.29379E+03
 -1       122-5.04342E+07-7.33892E+03-7.33892E+03-1.23730E+04 1.29299E+04 1.23730E+04
 -1       123-1.85358E+05-5.55385E+03-3.54658E+03-4.40983E+03-2.57612E+03-3.73981E+03
 -1       124-1.85358E+05-3.54658E+03-5.55385E+03 3.73981E+03-2.57612E+03 4.40983E+03
 -1       125-2.52374E+07 1.16564E+04 1.16564E+04 7.88385E+02 1.04234E+03-7.88385E+02
 -1       126-5.04816E+07-1.55690E+04-5.27768E+03-1.14861E+04 7.41001E+03-2.78335E+03
 -1       127-5.04816E+07-5.27768E+03-1.55690E+04 2.78335E+03 7.41001E+03 1.14861E+04
 -1       128-9.58715E+07-1.31321E+05-1.31321E+05 1.17377E+04-4.05255E+04 1.17377E+04
 -1       129-9.60173E+07-6.39333E+04 1.25172E+04 4.44482E+03-5.79834E-06 8.20991E-06
 -1       130-7.31532E+07 4.65375E+04 4.65375E+04 7.90657E+03 1.02417E+04 7.90657E+03
 -1       131-7.31756E+07 5.72514E+04 1.44127E+05 7.56397E+03-7.84219E-07 1.08152E-06
 -1       132-9.59758E+07-6.97446E+04-1.09101E+05-1.48283E+04-3.17513E+04 7.67479E+03
 -1       133-9.59758E+07-1.09101E+05-6.97446E+04 7.67479E+03-3.17513E+04-1.48283E+04
 -1       134-9.61131E+07-1.21814E+04 2.49131E+04-7.24479E+03-4.69698E-06 8.24548E-06
 -1       135-9.58715E+07-1.31321E+05-1.31321E+05 1.17377E+04 4.05255E+04-1.17377E+04
 -1       136-7.31532E+07 4.65375E+04 4.65375E+04 7.90657E+03-1.02417E+04-7.90657E+03
 -1       137-9.59758E+07-1.09101E+05-6.97446E+04 7.67479E+03 3.17513E+04 1.48283E+04
 -1       138-9.59758E+07-6.97446E+04-1.09101E+05-1.48283E+04 3.17513E+04-7.67479E+03
 -1       139-1.31604E+08-2.55448E+05-2.55448E+05-9.20345E+04-2.61612E+05-9.20345E+04
 -1       140-1.32717E+08-5.21304E+05-8.37022E+05-1.07487E+05-1.78142E-06 7.00932E-06
 -1       141-1.13887E+08 1.56888E+05 1.56888E+05-2.63328E+04 2.56670E+04-2.63328E+04
 -1       142-1.13877E+08 7.92199E+04 1.36323E+05-2.10460E+04-3.31569E-06 3.73124E-06
 -1       143-1.32253E+08-5.76846E+05-4.09608E+05-1.23358E+05-1.82128E+05-9.87855E+04
 -1       144-1.32253E+08-4.09608E+05-5.76846E+05-9.87855E+04-1.82128E+05-1.23358E+05
 -1       145-1.33339E+08-7.61441E+05-9.09921E+05-1.19408E+05 5.90653E-07 6.95793E-06
 -1       146-1.31604E+08-2.55448E+05-2.55448E+05-9.20345E+04 2.61612E+05 9.20345E+04
 -1       147-1.13887E+08 1.56888E+05 1.56888E+05-2.63328E+04-2.56670E+04 2.63328E+04
 -1       148-1.32253E+08-4.09608E+05-5.76846E+05-9.87855E+04 1.82128E+05 1.23358E+05
 -1       149-1.32253E+08-5.76846E+05-4.09608E+05-1.23358E+05 1.82128E+05 9.87855E+04
 -1       150-1.63817E+08-1.02347E+07-1.02347E+07 1.81940E+06-3.07984E+05 1.81940E+06
 -1       151-1.66773E+08-1.05115E+07-1.03798E+07 1.84640E+06 3.71656E-07-9.37603E-06
 -1       152-1.43267E+08 3.05693E+05 3.05693E+05 5.00359E+04 2.10434E+05 5.00359E+04
 -1       153-1.42247E+08 6.36020E+05 1.03922E+06 6.59721E+04-9.75218E-07-2.64379E-07
 -1       154-1.65378E+08-1.03452E+07-1.04288E+07-7.92179E+04-2.51202E+05 1.82891E+06
 -1       155-1.65378E+08-1.04288E+07-1.03452E+07 1.82891E+06-2.51202E+05-7.92179E+04
 -1       156-1.68546E+08-1.09423E+07-1.08943E+07-8.16610E+04-4.36794E-07-8.35652E-06
 -1       157-1.63817E+08-1.02347E+07-1.02347E+07 1.81940E+06 3.07984E+05-1.81940E+06
 -1       158-1.43267E+08 3.05693E+05 3.05693E+05 5.00359E+04-2.10434E+05-5.00359E+04
 -1       159-1.65378E+08-1.04288E+07-1.03452E+07 1.82891E+06 2.51202E+05 7.92179E+04
 -1       160-1.65378E+08-1.03452E+07-1.04288E+07-7.92179E+04 2.51202E+05-1.82891E+06
 -1       161-1.94350E+08-8.32952E+07-8.32952E+07-1.55112E+07 3.11990E+00-1.55112E+07
 -1       162-1.85013E+08-7.92938E+07-7.92938E+07-1.55077E+07-4.00445E-09-7.96764E-06
 -1       163-1.45849E+08 9.95582E+06 9.95582E+06-1.73232E+06-5.23010E+04-1.73232E+06
 -1       164-1.47031E+08 9.79888E+06 9.96640E+06-1.76339E+06 1.44880E-06-3.80399E-06
 -1       165-1.89646E+08-8.12742E+07-8.12742E+07-7.76556E+06-2.11827E+00-1.55073E+07
 -1       166-1.89646E+08-8.12742E+07-8.12742E+07-1.55073E+07-2.11827E+00-7.76556E+06
 -1       167-1.80253E+08-7.72486E+07-7.72486E+07-7.75998E+06-3.33216E-10-8.27407E-06
 -1       168-1.94350E+08-8.32952E+07-8.32952E+07-1.55112E+07-3.11990E+00 1.55112E+07
 -1       169-1.45849E+08 9.95582E+06 9.95582E+06-1.73232E+06 5.23010E+04 1.73232E+06
 -1       170-1.89646E+08-8.12742E+07-8.12742E+07-1.55073E+07 2.11827E+00 7.76556E+06
 -1       171-1.89646E+08-8.12742E+07-8.12742E+07-7.76556E+06 2.11827E+00 1.55073E+07
 -3
    1PSTEP                        13           1           1          
    1PGM                1.000000E+00                                  
    1PGK                7.144284E+05                                  
    1PHID                         -1                                  
    1PSUBC                         0                                  
    1PMODE                         7                                  
  100CL  107 1.34524E+02         171                     2    7MODAL      1
 -4  DISP        4    1
 -5  D1          1    2    1    0
 -5  D2          1    2    2    0
 -5  D3          1    2    3    0
 -5  ALL         1    2    0    0    1ALL
 -1         1-3.36553E-03 6.41832E-03-2.29273E-03
 -1         2-8.83791E-04 6.39906E-03-2.28125E-03
 -1         3-5.24754E-17 6.40969E-03-2.27682E-03
 -1         4-2.48804E-03 6.42215E-03-2.27305E-03
 -1         5-1.99955E-03-2.53448E-03 7.53624E-04
 -1         6-5.27628E-04-2.67740E-03 8.91627E-04
 -1         7-4.55365E-17-2.59461E-03 9.21646E-04
 -1         8-1.48537E-03-2.51010E-03 9.51054E-04
 -1         9-2.11222E-03 6.41034E-03-2.28653E-03
 -1        10-4.37944E-04 6.40324E-03-2.27971E-03
 -1        11-1.23290E-03 6.41782E-03-2.27453E-03
 -1        12-2.92447E-03 6.41891E-03-2.28380E-03
 -1        13-2.99203E-03 1.48896E-03-5.92283E-04
 -1        14-7.87455E-04 1.42638E-03-5.32724E-04
 -1        15-5.11743E-17 1.46344E-03-5.19836E-04
 -1        16-2.21684E-03 1.49972E-03-5.06674E-04
 -1        17-1.23929E-03-2.62879E-03 8.14906E-04
 -1        18-2.56085E-04-2.61350E-03 9.14817E-04
 -1        19-7.20928E-04-2.57538E-03 9.28355E-04
 -1        20-1.73891E-03-2.49955E-03 8.60532E-04
 -1        21 8.83791E-04 6.39906E-03-2.28125E-03
 -1        22-1.60125E-03 6.40788E-03-2.26334E-03
 -1        23 5.27628E-04-2.67740E-03 8.91627E-04
 -1        24-9.51343E-04-2.65371E-03 1.08930E-03
 -1        25 4.37944E-04 6.40324E-03-2.27971E-03
 -1        26-3.44577E-04 6.40486E-03-2.27182E-03
 -1        27-2.05178E-03 6.41369E-03-2.26836E-03
 -1        28 7.87455E-04 1.42638E-03-5.32724E-04
 -1        29-1.42355E-03 1.43743E-03-4.47216E-04
 -1        30 2.56085E-04-2.61350E-03 9.14817E-04
 -1        31-1.83430E-04-2.68835E-03 9.81930E-04
 -1        32-1.23353E-03-2.55888E-03 1.02820E-03
 -1        33 1.54911E-03-3.04245E-03 9.55876E-04
 -1        34 4.10414E-04-3.16205E-03 1.07324E-03
 -1        35-3.69713E-17-3.09259E-03 1.09854E-03
 -1        36 1.15539E-03-3.02137E-03 1.12321E-03
 -1        37-1.80733E-04-4.23792E-03 1.32484E-03
 -1        38-4.68682E-05-4.40609E-03 1.49472E-03
 -1        39-4.22839E-17-4.30563E-03 1.52943E-03
 -1        40-1.31943E-04-4.20793E-03 1.56511E-03
 -1        41 9.49142E-04-3.12455E-03 1.00775E-03
 -1        42 1.95500E-04-3.10583E-03 1.09391E-03
 -1        43 5.50369E-04-3.07957E-03 1.10324E-03
 -1        44 1.34759E-03-3.00988E-03 1.04755E-03
 -1        45-4.10414E-04-3.16205E-03 1.07324E-03
 -1        46 7.37036E-04-3.14396E-03 1.24164E-03
 -1        47 4.68682E-05-4.40609E-03 1.49472E-03
 -1        48-8.59891E-05-4.38470E-03 1.73805E-03
 -1        49-1.95500E-04-3.10583E-03 1.09391E-03
 -1        50 1.27634E-04-3.17524E-03 1.14830E-03
 -1        51 9.65105E-04-3.05981E-03 1.19024E-03
 -1        52 1.69604E-03 3.47622E-03-1.12521E-03
 -1        53 4.47623E-04 3.58250E-03-1.22851E-03
 -1        54-2.55872E-17 3.52197E-03-1.25106E-03
 -1        55 1.26014E-03 3.45850E-03-1.27256E-03
 -1        56 2.13274E-03 1.70031E-04-6.73489E-05
 -1        57 5.64624E-04 1.63190E-04-6.07452E-05
 -1        58-3.12250E-17 1.67418E-04-5.94697E-05
 -1        59 1.58952E-03 1.71009E-04-5.79676E-05
 -1        60 1.03916E-03 3.55136E-03-1.17049E-03
 -1        61 2.13405E-04 3.53126E-03-1.24773E-03
 -1        62 6.00775E-04 3.51261E-03-1.25436E-03
 -1        63 1.47328E-03 3.44568E-03-1.20679E-03
 -1        64-4.47623E-04 3.58250E-03-1.22851E-03
 -1        65 8.06941E-04 3.56532E-03-1.37605E-03
 -1        66-5.64624E-04 1.63190E-04-6.07452E-05
 -1        67 1.01471E-03 1.64379E-04-5.14388E-05
 -1        68-2.13405E-04 3.53126E-03-1.24773E-03
 -1        69 1.41468E-04 3.59584E-03-1.29288E-03
 -1        70 1.05390E-03 3.48915E-03-1.33201E-03
 -1        71-1.19631E-03 4.04086E-03-1.32649E-03
 -1        72-3.23328E-04 4.15086E-03-1.43049E-03
 -1        73-1.82146E-17 4.09373E-03-1.45416E-03
 -1        74-9.10230E-04 4.02710E-03-1.47445E-03
 -1        75 2.04004E-04 5.00744E-03-1.62905E-03
 -1        76 5.41607E-05 5.13921E-03-1.76959E-03
 -1        77-2.21177E-17 5.05687E-03-1.79628E-03
 -1        78 1.52473E-04 4.98174E-03-1.82553E-03
 -1        79-7.10863E-04 4.10306E-03-1.37608E-03
 -1        80-1.45838E-04 4.11517E-03-1.44489E-03
 -1        81-4.10563E-04 4.06764E-03-1.46177E-03
 -1        82-1.04498E-03 4.02677E-03-1.40304E-03
 -1        83 3.23328E-04 4.15086E-03-1.43049E-03
 -1        84-5.69179E-04 4.12939E-03-1.57571E-03
 -1        85-5.41607E-05 5.13921E-03-1.76959E-03
 -1        86 9.70608E-05 5.12912E-03-1.97162E-03
 -1        87 1.45838E-04 4.11517E-03-1.44489E-03
 -1        88-6.65751E-05 4.14731E-03-1.50034E-03
 -1        89-7.68817E-04 4.07091E-03-1.52762E-03
 -1        90 0.00000E+00 0.00000E+00 0.00000E+00
 -1        91 0.00000E+00 0.00000E+00 0.00000E+00
 -1        92 0.00000E+00 0.00000E+00 0.00000E+00
 -1        93 0.00000E+00 0.00000E+00 0.00000E+00
 -1        94-1.19637E-03 1.68928E-03-6.82301E-04
 -1        95-3.15606E-04 1.61341E-03-6.03555E-04
 -1        96-6.72205E-18 1.65434E-03-5.87648E-04
 -1        97-8.88489E-04 1.69912E-03-5.73108E-04
 -1        98 0.00000E+00 0.00000E+00 0.00000E+00
 -1        99 0.00000E+00 0.00000E+00 0.00000E+00
 -1       100 0.00000E+00 0.00000E+00 0.00000E+00
 -1       101 0.00000E+00 0.00000E+00 0.00000E+00
 -1       102 0.00000E+00 0.00000E+00 0.00000E+00
 -1       103 0.00000E+00 0.00000E+00 0.00000E+00
 -1       104 3.15606E-04 1.61341E-03-6.03555E-04
 -1       105-5.69209E-04 1.62242E-03-4.94066E-04
 -1       106 0.00000E+00 0.00000E+00 0.00000E+00
 -1       107 0.00000E+00 0.00000E+00 0.00000E+00
 -1       108 0.00000E+00 0.00000E+00 0.00000E+00
 -1       109 1.60125E-03 6.40788E-03-2.26334E-03
 -1       110 2.48804E-03 6.42215E-03-2.27305E-03
 -1       111 9.51343E-04-2.65371E-03 1.08930E-03
 -1       112 1.48537E-03-2.51010E-03 9.51054E-04
 -1       113 3.44577E-04 6.40486E-03-2.27182E-03
 -1       114 2.05178E-03 6.41369E-03-2.26836E-03
 -1       115 1.23290E-03 6.41782E-03-2.27453E-03
 -1       116 1.42355E-03 1.43743E-03-4.47216E-04
 -1       117 2.21684E-03 1.49972E-03-5.06674E-04
 -1       118 1.83430E-04-2.68835E-03 9.81930E-04
 -1       119 1.23353E-03-2.55888E-03 1.02820E-03
 -1       120 7.20928E-04-2.57538E-03 9.28355E-04
 -1       121 3.36553E-03 6.41832E-03-2.29273E-03
 -1       122 1.99955E-03-2.53448E-03 7.53624E-04
 -1       123 2.92447E-03 6.41891E-03-2.28380E-03
 -1       124 2.11222E-03 6.41034E-03-2.28653E-03
 -1       125 2.99203E-03 1.48896E-03-5.92283E-04
 -1       126 1.73891E-03-2.49955E-03 8.60532E-04
 -1       127 1.23929E-03-2.62879E-03 8.14906E-04
 -1       128-7.37036E-04-3.14396E-03 1.24164E-03
 -1       129-1.15539E-03-3.02137E-03 1.12321E-03
 -1       130 8.59891E-05-4.38470E-03 1.73805E-03
 -1       131 1.31943E-04-4.20793E-03 1.56511E-03
 -1       132-1.27634E-04-3.17524E-03 1.14830E-03
 -1       133-9.65105E-04-3.05981E-03 1.19024E-03
 -1       134-5.50369E-04-3.07957E-03 1.10324E-03
 -1       135-1.54911E-03-3.04245E-03 9.55876E-04
 -1       136 1.80733E-04-4.23792E-03 1.32484E-03
 -1       137-1.34759E-03-3.00988E-03 1.04755E-03
 -1       138-9.49142E-04-3.12455E-03 1.00775E-03
 -1       139-8.06941E-04 3.56532E-03-1.37605E-03
 -1       140-1.26014E-03 3.45850E-03-1.27256E-03
 -1       141-1.01471E-03 1.64379E-04-5.14388E-05
 -1       142-1.58952E-03 1.71009E-04-5.79676E-05
 -1       143-1.41468E-04 3.59584E-03-1.29288E-03
 -1       144-1.05390E-03 3.48915E-03-1.33201E-03
 -1       145-6.00775E-04 3.51261E-03-1.25436E-03
 -1       146-1.69604E-03 3.47622E-03-1.12521E-03
 -1       147-2.13274E-03 1.70031E-04-6.73489E-05
 -1       148-1.47328E-03 3.44568E-03-1.20679E-03
 -1       149-1.03916E-03 3.55136E-03-1.17049E-03
 -1       150 5.69179E-04 4.12939E-03-1.57571E-03
 -1       151 9.10230E-04 4.02710E-03-1.47445E-03
 -1       152-9.70608E-05 5.12912E-03-1.97162E-03
 -1       153-1.52473E-04 4.98174E-03-1.82553E-03
 -1       154 6.65751E-05 4.14731E-03-1.50034E-03
 -1       155 7.68817E-04 4.07091E-03-1.52762E-03
 -1       156 4.10563E-04 4.06764E-03-1.46177E-03
 -1       157 1.19631E-03 4.04086E-03-1.32649E-03
 -1       158-2.04004E-04 5.00744E-03-1.62905E-03
 -1       159 1.04498E-03 4.02677E-03-1.40304E-03
 -1       160 7.10863E-04 4.10306E-03-1.37608E-03
 -1       161 0.00000E+00 0.00000E+00 0.00000E+00
 -1       162 0.00000E+00 0.00000E+00 0.00000E+00
 -1       163 5.69209E-04 1.62242E-03-4.94066E-04
 -1       164 8.88489E-04 1.69912E-03-5.73108E-04
 -1       165 0.00000E+00 0.00000E+00 0.00000E+00
 -1       166 0.00000E+00 0.00000E+00 0.00000E+00
 -1       167 0.00000E+00 0.00000E+00 0.00000E+00
 -1       168 0.00000E+00 0.00000E+00 0.00000E+00
 -1       169 1.19637E-03 1.68928E-03-6.82301E-04
 -1       170 0.00000E+00 0.00000E+00 0.00000E+00
 -1       171 0.00000E+00 0.00000E+00 0.00000E+00
 -3
    1PSTEP                        14           1           1          
    1PGM                1.000000E+00                                  
    1PGK                7.144284E+05                                  
    1PHID                         -1                                  
    1PSUBC                         0                                  
    1PMODE                         7                                  
  100CL  107 1.34524E+02         171                     2    7MODAL      1
 -4  STRESS      6    1
 -5  SXX         1    4    1    1
 -5  SYY         1    4    2    2
 -5  SZZ         1    4    3    3
 -5  SXY         1    4    1    2
 -5  SYZ         1    4    2    3
 -5  SZX         1    4    3    1
 -1         1-1.06111E+07 3.12457E+06 4.16170E+06 2.45624E+07-2.27380E+06-8.01720E+06
 -1         2-2.20171E+06 1.81219E+06 5.72723E+05 4.20545E+07-1.33269E+06-8.57037E+06
 -1         3-7.45058E-08-2.56952E-06 2.19094E-06 3.87122E+07 3.94764E-07-1.37512E+07
 -1         4-6.19822E+06 1.61232E+06 5.10166E+06 2.41272E+07-4.73391E+05-1.49384E+07
 -1         5-3.18892E+08-3.31006E+06-4.58118E+06 1.71886E+07 1.26069E+06-3.70739E+06
 -1         6-8.40694E+07-1.60434E+06-6.06550E+05 5.40160E+07 1.01641E+06-5.51816E+06
 -1         7-1.25566E-06-1.74728E-06 9.99658E-07 4.59086E+07 1.62752E-06-1.63075E+07
 -1         8-2.36671E+08-1.70755E+06-4.51653E+06 1.55347E+07 3.61045E+05-1.91874E+07
 -1         9-5.70010E+06 7.18639E+06 3.97365E+06 3.41163E+07-1.37293E+06-8.18233E+06
 -1        10-7.87655E+05 1.51212E+06 1.98770E+06 3.91048E+07 4.44652E+05-1.15020E+07
 -1        11-2.21740E+06 5.59575E+06 4.25692E+06 3.23803E+07 1.57948E+05-1.38906E+07
 -1        12-7.79460E+06 3.02435E+06 6.44217E+06 2.31693E+07-3.06850E+05-1.14448E+07
 -1        13-1.36546E+08 8.34550E+05-6.46057E+05-6.13161E+06 1.31537E+06 3.89880E+06
 -1        14-3.55147E+07-1.25561E+05 4.67724E+05 2.16381E+07 1.23846E+06 2.70692E+06
 -1        15 1.09756E-06 3.71784E-06 2.27056E-06 1.53857E+07-8.17236E-08-5.46523E+06
 -1        16-9.99805E+07 1.31673E+06-3.53479E+05-7.62049E+06 4.39922E+05-7.68619E+06
 -1        17-1.99576E+08-3.42932E+06-2.42166E+06 3.56998E+07 9.05899E+05-4.86416E+06
 -1        18-4.14626E+07-7.97872E+05-6.70016E+05 4.86340E+07-3.54958E+04-1.10804E+07
 -1        19-1.16725E+08-1.88622E+06-2.24616E+06 3.11934E+07-1.26087E+04-1.72756E+07
 -1        20-2.77597E+08-2.51219E+06-5.05907E+06 1.52710E+07 2.33976E+05-1.05949E+07
 -1        21 2.20171E+06-1.81219E+06-5.72723E+05 4.20545E+07 1.33269E+06-8.57037E+06
 -1        22-5.04854E+06 6.43398E+05 2.82326E+06 2.51378E+07 1.08183E+06-9.63707E+06
 -1        23 8.40694E+07 1.60434E+06 6.06550E+05 5.40160E+07-1.01641E+06-5.51816E+06
 -1        24-1.51722E+08-5.41418E+05-3.21307E+06 1.91385E+07-5.99809E+05-9.19658E+06
 -1        25 7.87655E+05-1.51212E+06-1.98770E+06 3.91048E+07-4.44652E+05-1.15020E+07
 -1        26-1.00912E+06 4.02419E+06 2.66238E+06 3.46642E+07 1.51995E+06-8.29165E+06
 -1        27-5.41139E+06 6.67128E+05 2.46000E+06 2.32081E+07-7.20749E+05-1.29871E+07
 -1        28 3.55147E+07 1.25561E+05-4.67724E+05 2.16381E+07-1.23846E+06 2.70692E+06
 -1        29-6.49657E+07 1.60082E+06-1.51114E+06-4.73260E+06-6.25825E+05-3.96609E+04
 -1        30 4.14626E+07 7.97872E+05 6.70016E+05 4.86340E+07 3.54958E+04-1.10804E+07
 -1        31-3.15221E+07-3.06594E+05-1.07858E+06 3.73960E+07-9.77293E+05-6.14667E+06
 -1        32-1.95507E+08-1.26885E+06-3.73201E+06 1.57266E+07 4.34964E+05-1.53700E+07
 -1        33-2.79928E+08-1.90521E+06-4.81181E+06-2.94542E+07 2.93482E+06 7.52041E+06
 -1        34-7.40624E+07-1.92172E+06 1.64323E+05-7.56414E+07 2.64130E+06 9.76453E+06
 -1        35-6.90110E-07-1.99070E-07 1.59617E-06-6.55180E+07-5.28875E-07 2.32730E+07
 -1        36-2.08500E+08 4.62601E+05-5.41000E+06-2.74890E+07 9.38233E+05 2.68690E+07
 -1        37-3.55144E+08-2.63134E+06 1.73588E+06 8.88186E+05-3.27660E+06-6.13039E+05
 -1        38-9.38823E+07 8.19362E+05-1.07116E+06-3.96459E+06-2.31172E+06-3.83353E+05
 -1        39 2.05822E-07 5.26547E-07 2.99665E-06-2.86008E+06-1.29105E-07 1.01594E+06
 -1        40-2.64296E+08-3.01552E+06 2.30666E+06 1.07921E+06-8.21161E+05 1.40829E+06
 -1        41-1.75690E+08-5.90485E+06-3.45679E+06-5.29710E+07 2.25278E+06 8.87856E+06
 -1        42-3.66927E+07-1.44542E+06-1.32226E+06-6.86504E+07 6.79868E+04 1.68295E+07
 -1        43-1.03297E+08-3.72242E+06-4.06914E+06-4.73782E+07 2.41500E+04 2.43857E+07
 -1        44-2.44361E+08-1.01495E+06-6.67773E+06-2.68425E+07 5.53477E+05 1.62632E+07
 -1        45 7.40624E+07 1.92172E+06-1.64323E+05-7.56414E+07-2.64130E+06 9.76453E+06
 -1        46-1.33184E+08 1.45665E+06-4.65247E+06-3.18462E+07-1.39633E+06 1.42544E+07
 -1        47 9.38823E+07-8.19362E+05 1.07116E+06-3.96459E+06 2.31172E+06-3.83353E+05
 -1        48-1.68970E+08-4.80256E+06 4.37652E+06 6.46280E+05 1.55894E+06 6.79720E+04
 -1        49 3.66927E+07 1.44542E+06 1.32226E+06-6.86504E+07-6.79868E+04 1.68295E+07
 -1        50-2.77597E+07-2.18104E+06-3.62993E+06-5.50465E+07-2.45339E+06 1.03808E+07
 -1        51-1.72092E+08 1.50237E+06-3.80549E+06-2.73762E+07 1.11823E+06 2.21063E+07
 -1        52 2.48356E+08-2.55728E+06 2.16199E+06-2.37208E+07-4.09611E+06 6.21424E+06
 -1        53 6.52585E+07 1.28141E+06-1.77021E+06-7.14038E+07-3.85955E+06 8.03171E+06
 -1        54-1.90455E-06-4.22006E-06 6.76140E-07-6.20728E+07-1.59629E-06 2.20492E+07
 -1        55 1.83715E+08-4.98348E+06 3.60742E+06-2.26108E+07-1.37097E+06 2.53638E+07
 -1        56-1.58490E+07-2.25676E+06-1.59586E+06 1.00040E+07-6.23394E+05-6.44509E+06
 -1        57-4.02528E+06-2.92837E+05-7.21520E+05-3.83966E+07-5.26506E+05-4.52488E+06
 -1        58-1.52242E-06-1.69384E-06 4.14904E-07-2.72884E+07-1.72964E-06 9.69327E+06
 -1        59-1.13319E+07-2.03121E+06-8.24392E+05 1.27384E+07-1.87023E+05 1.36391E+07
 -1        60 1.54719E+08 4.34892E+06 1.49470E+06-4.75181E+07-3.19418E+06 7.46527E+06
 -1        61 3.21019E+07 1.25997E+06 9.89608E+05-6.49942E+07-1.45689E+05 1.52447E+07
 -1        62 9.03730E+07 2.78593E+06 3.54706E+06-4.29166E+07-5.17509E+04 2.30870E+07
 -1        63 2.16079E+08-3.44904E+06 4.84856E+06-2.17447E+07-6.80559E+05 1.42679E+07
 -1        64-6.52585E+07-1.28141E+06 1.77021E+06-7.14038E+07 3.85955E+06 8.03171E+06
 -1        65 1.18163E+08-5.05355E+06 4.86548E+06-2.55189E+07 1.94885E+06 1.12765E+07
 -1        66 4.02528E+06 2.92837E+05 7.21520E+05-3.83966E+07 5.26506E+05-4.52488E+06
 -1        67-7.54063E+06-1.61105E+06-2.21955E+05 7.65309E+06 2.96598E+05 1.73032E+05
 -1        68-3.21019E+07-1.25997E+06-9.89608E+05-6.49942E+07 1.45689E+05 1.52447E+07
 -1        69 2.37253E+07 1.66291E+06 4.73049E+06-4.96411E+07 3.56334E+06 8.05759E+06
 -1        70 1.52693E+08-5.66032E+06 2.71306E+06-2.19551E+07-1.71982E+06 2.02446E+07
 -1        71 1.94330E+08 1.42424E+06-4.56574E+06 2.39607E+07 7.96002E+06-2.07190E+06
 -1        72 5.13831E+07-1.89994E+06 1.27077E+06 9.89156E+07 5.88610E+06-6.58787E+06
 -1        73 1.16229E-06 7.34907E-06 2.71131E-06 8.13831E+07-1.95636E-06-2.89086E+07
 -1        74 1.44653E+08 3.57746E+06-5.34869E+06 1.85461E+07 2.09084E+06-3.51364E+07
 -1        75 2.95309E+08 1.43061E+07 5.91736E+06-3.67494E+06 6.07567E+06 8.83638E+05
 -1        76 7.87515E+07 7.49283E+05 4.76518E+06 6.59791E+06 4.51434E+06 1.10320E+06
 -1        77-4.49829E-07 3.52506E-07 5.48782E-07 6.16065E+06-1.59512E-06-2.18836E+06
 -1        78 2.21700E+08 1.34149E+07 2.10937E+06-3.10571E+06 1.60356E+06-2.34368E+06
 -1        79 1.16420E+08-1.11125E+07-6.79259E+06 6.14768E+07 6.13785E+06-4.88547E+06
 -1        80 2.34594E+07-2.76343E+06-3.25952E+06 8.81467E+07 7.39614E+05-1.79018E+07
 -1        81 6.60428E+07-9.17616E+06-7.77957E+06 5.03970E+07 2.62722E+05-3.13111E+07
 -1        82 1.67635E+08 7.99776E+05-8.65416E+06 1.96800E+07 2.80002E+06-1.76682E+07
 -1        83-5.13831E+07 1.89994E+06-1.27077E+06 9.89156E+07-5.88610E+06-6.58787E+06
 -1        84 9.24582E+07 5.54758E+06-7.04224E+06 2.91959E+07-3.78722E+06-1.68102E+07
 -1        85-7.87515E+07-7.49283E+05-4.76518E+06 6.59791E+06-4.51434E+06 1.10320E+06
 -1        86 1.40502E+08 1.36268E+07-4.00484E+06-4.01784E+06-2.89068E+06 1.84896E+06
 -1        87-2.34594E+07 2.76343E+06 3.25952E+06 8.81467E+07-7.39614E+05-1.79018E+07
 -1        88 1.37517E+07-7.28574E+06-9.40450E+06 6.48665E+07-5.63398E+06-9.70380E+06
 -1        89 1.21396E+08 6.55324E+06-2.11882E+06 2.13916E+07 1.38153E+06-2.72109E+07
 -1        90-4.83158E+08-2.07068E+08-2.07068E+08 1.04470E+08-4.74603E+01-5.39499E+07
 -1        91-1.26416E+08-5.41785E+07-5.41785E+07 8.85658E+07-3.64589E+01-3.78351E+07
 -1        92-1.08406E-06-5.14592E-07-2.86498E-07 9.70606E+07 2.60479E-08-3.44775E+07
 -1        93-3.55886E+08-1.52523E+08-1.52523E+08 1.06513E+08-1.29508E+01-3.14600E+07
 -1        94-1.22841E+08-1.18941E+07 1.20327E+06 4.85409E+06-1.35617E+07-1.10130E+06
 -1        95-3.33218E+07 1.84062E+06-5.13453E+06 4.00375E+07-1.04299E+07-1.59532E+06
 -1        96-5.11296E-07 3.05288E-06 1.31410E-06 3.44709E+07-3.69735E-07-1.22446E+07
 -1        97-9.38072E+07-1.44547E+07 5.18170E+06 4.49112E+06-3.70486E+06-1.42220E+07
 -1        98-2.98202E+08-1.27800E+08-1.27800E+08 9.67985E+07-6.95043E+01-4.58014E+07
 -1        99-6.10789E+07-2.61765E+07-2.61765E+07 9.25432E+07-1.77899E+01-3.62565E+07
 -1       100-1.71949E+08-7.36918E+07-7.36918E+07 1.02069E+08-6.31924E+00-3.28728E+07
 -1       101-4.18411E+08-1.79318E+08-1.79318E+08 1.05218E+08-3.90309E+01-4.28052E+07
 -1       102 1.26416E+08 5.41785E+07 5.41785E+07 8.85658E+07 3.64589E+01-3.78351E+07
 -1       103-2.29877E+08-9.85187E+07-9.85186E+07 9.07779E+07 2.25807E+01-1.54051E+07
 -1       104 3.33218E+07-1.84062E+06 5.13453E+06 4.00375E+07 1.04299E+07-1.59532E+06
 -1       105-5.84453E+07-1.63073E+07 1.12208E+07 5.36056E+06 6.45236E+06-2.52710E+06
 -1       106 6.10789E+07 2.61765E+07 2.61765E+07 9.25432E+07 1.77899E+01-3.62565E+07
 -1       107-4.41461E+07-1.89195E+07-1.89194E+07 8.99522E+07 5.78441E+01-2.65155E+07
 -1       108-2.96804E+08-1.27201E+08-1.27201E+08 9.83675E+07-6.20531E+00-2.35316E+07
 -1       109 5.04854E+06-6.43398E+05-2.82326E+06 2.51378E+07-1.08183E+06-9.63707E+06
 -1       110 6.19822E+06-1.61232E+06-5.10166E+06 2.41272E+07 4.73391E+05-1.49384E+07
 -1       111 1.51722E+08 5.41418E+05 3.21307E+06 1.91385E+07 5.99809E+05-9.19658E+06
 -1       112 2.36671E+08 1.70755E+06 4.51653E+06 1.55347E+07-3.61045E+05-1.91874E+07
 -1       113 1.00912E+06-4.02419E+06-2.66238E+06 3.46642E+07-1.51995E+06-8.29165E+06
 -1       114 5.41139E+06-6.67128E+05-2.46000E+06 2.32081E+07 7.20749E+05-1.29871E+07
 -1       115 2.21740E+06-5.59575E+06-4.25692E+06 3.23803E+07-1.57948E+05-1.38906E+07
 -1       116 6.49657E+07-1.60082E+06 1.51114E+06-4.73260E+06 6.25825E+05-3.96609E+04
 -1       117 9.99805E+07-1.31673E+06 3.53479E+05-7.62049E+06-4.39922E+05-7.68619E+06
 -1       118 3.15221E+07 3.06594E+05 1.07858E+06 3.73960E+07 9.77293E+05-6.14667E+06
 -1       119 1.95507E+08 1.26885E+06 3.73201E+06 1.57266E+07-4.34964E+05-1.53700E+07
 -1       120 1.16725E+08 1.88622E+06 2.24616E+06 3.11934E+07 1.26087E+04-1.72756E+07
 -1       121 1.06111E+07-3.12457E+06-4.16170E+06 2.45624E+07 2.27380E+06-8.01720E+06
 -1       122 3.18892E+08 3.31006E+06 4.58118E+06 1.71886E+07-1.26069E+06-3.70739E+06
 -1       123 7.79460E+06-3.02435E+06-6.44217E+06 2.31693E+07 3.06850E+05-1.14448E+07
 -1       124 5.70010E+06-7.18639E+06-3.97365E+06 3.41163E+07 1.37293E+06-8.18233E+06
 -1       125 1.36546E+08-8.34550E+05 6.46057E+05-6.13161E+06-1.31537E+06 3.89880E+06
 -1       126 2.77597E+08 2.51219E+06 5.05907E+06 1.52710E+07-2.33976E+05-1.05949E+07
 -1       127 1.99576E+08 3.42932E+06 2.42166E+06 3.56998E+07-9.05899E+05-4.86416E+06
 -1       128 1.33184E+08-1.45665E+06 4.65247E+06-3.18462E+07 1.39633E+06 1.42544E+07
 -1       129 2.08500E+08-4.62601E+05 5.41000E+06-2.74890E+07-9.38233E+05 2.68690E+07
 -1       130 1.68970E+08 4.80256E+06-4.37652E+06 6.46280E+05-1.55894E+06 6.79720E+04
 -1       131 2.64296E+08 3.01552E+06-2.30666E+06 1.07921E+06 8.21161E+05 1.40829E+06
 -1       132 2.77597E+07 2.18104E+06 3.62993E+06-5.50465E+07 2.45339E+06 1.03808E+07
 -1       133 1.72092E+08-1.50237E+06 3.80549E+06-2.73762E+07-1.11823E+06 2.21063E+07
 -1       134 1.03297E+08 3.72242E+06 4.06914E+06-4.73782E+07-2.41500E+04 2.43857E+07
 -1       135 2.79928E+08 1.90521E+06 4.81181E+06-2.94542E+07-2.93482E+06 7.52041E+06
 -1       136 3.55144E+08 2.63134E+06-1.73588E+06 8.88186E+05 3.27660E+06-6.13039E+05
 -1       137 2.44361E+08 1.01495E+06 6.67773E+06-2.68425E+07-5.53477E+05 1.62632E+07
 -1       138 1.75690E+08 5.90485E+06 3.45679E+06-5.29710E+07-2.25278E+06 8.87856E+06
 -1       139-1.18163E+08 5.05355E+06-4.86548E+06-2.55189E+07-1.94885E+06 1.12765E+07
 -1       140-1.83715E+08 4.98348E+06-3.60742E+06-2.26108E+07 1.37097E+06 2.53638E+07
 -1       141 7.54063E+06 1.61105E+06 2.21955E+05 7.65309E+06-2.96598E+05 1.73032E+05
 -1       142 1.13319E+07 2.03121E+06 8.24392E+05 1.27384E+07 1.87023E+05 1.36391E+07
 -1       143-2.37253E+07-1.66291E+06-4.73049E+06-4.96411E+07-3.56334E+06 8.05759E+06
 -1       144-1.52693E+08 5.66032E+06-2.71306E+06-2.19551E+07 1.71982E+06 2.02446E+07
 -1       145-9.03730E+07-2.78593E+06-3.54706E+06-4.29166E+07 5.17509E+04 2.30870E+07
 -1       146-2.48356E+08 2.55728E+06-2.16199E+06-2.37208E+07 4.09611E+06 6.21424E+06
 -1       147 1.58490E+07 2.25676E+06 1.59586E+06 1.00040E+07 6.23394E+05-6.44509E+06
 -1       148-2.16079E+08 3.44904E+06-4.84856E+06-2.17447E+07 6.80559E+05 1.42679E+07
 -1       149-1.54719E+08-4.34892E+06-1.49470E+06-4.75181E+07 3.19418E+06 7.46527E+06
 -1       150-9.24582E+07-5.54758E+06 7.04224E+06 2.91959E+07 3.78722E+06-1.68102E+07
 -1       151-1.44653E+08-3.57746E+06 5.34869E+06 1.85461E+07-2.09084E+06-3.51364E+07
 -1       152-1.40502E+08-1.36268E+07 4.00484E+06-4.01784E+06 2.89068E+06 1.84896E+06
 -1       153-2.21700E+08-1.34149E+07-2.10937E+06-3.10571E+06-1.60356E+06-2.34368E+06
 -1       154-1.37517E+07 7.28574E+06 9.40450E+06 6.48665E+07 5.63398E+06-9.70380E+06
 -1       155-1.21396E+08-6.55324E+06 2.11882E+06 2.13916E+07-1.38153E+06-2.72109E+07
 -1       156-6.60428E+07 9.17616E+06 7.77957E+06 5.03970E+07-2.62722E+05-3.13111E+07
 -1       157-1.94330E+08-1.42424E+06 4.56574E+06 2.39607E+07-7.96002E+06-2.07190E+06
 -1       158-2.95309E+08-1.43061E+07-5.91736E+06-3.67494E+06-6.07567E+06 8.83638E+05
 -1       159-1.67635E+08-7.99776E+05 8.65416E+06 1.96800E+07-2.80002E+06-1.76682E+07
 -1       160-1.16420E+08 1.11125E+07 6.79259E+06 6.14768E+07-6.13785E+06-4.88547E+06
 -1       161 2.29877E+08 9.85187E+07 9.85186E+07 9.07779E+07-2.25807E+01-1.54051E+07
 -1       162 3.55886E+08 1.52523E+08 1.52523E+08 1.06513E+08 1.29508E+01-3.14600E+07
 -1       163 5.84453E+07 1.63073E+07-1.12208E+07 5.36056E+06-6.45236E+06-2.52710E+06
 -1       164 9.38072E+07 1.44547E+07-5.18170E+06 4.49112E+06 3.70486E+06-1.42220E+07
 -1       165 4.41461E+07 1.89195E+07 1.89194E+07 8.99522E+07-5.78441E+01-2.65155E+07
 -1       166 2.96804E+08 1.27201E+08 1.27201E+08 9.83675E+07 6.20531E+00-2.35316E+07
 -1       167 1.71949E+08 7.36918E+07 7.36918E+07 1.02069E+08 6.31924E+00-3.28728E+07
 -1       168 4.83158E+08 2.07068E+08 2.07068E+08 1.04470E+08 4.74603E+01-5.39499E+07
 -1       169 1.22841E+08 1.18941E+07-1.20327E+06 4.85409E+06 1.35617E+07-1.10130E+06
 -1       170 4.18411E+08 1.79318E+08 1.79318E+08 1.05218E+08 3.90309E+01-4.28052E+07
 -1       171 2.98202E+08 1.27800E+08 1.27800E+08 9.67985E+07 6.95043E+01-4.58014E+07
 -3
    1PSTEP                        15           1           1          
    1PGM                1.000000E+00                                  
    1PGK                7.144284E+05                                  
    1PHID                         -1                                  
    1PSUBC                         0                                  
    1PMODE                         8                                  
  100CL  108 1.34524E+02         171                     2    8MODAL      1
 -4  DISP        4    1
 -5  D1          1    2    1    0
 -5  D2          1    2    2    0
 -5  D3          1    2    3    0
 -5  ALL         1    2    0    0    1ALL
 -1         1 1.60125E-03 2.26334E-03 6.40788E-03
 -1         2 2.48804E-03 2.27305E-03 6.42215E-03
 -1         3-5.31096E-16 2.27682E-03 6.40969E-03
 -1         4-8.83791E-04 2.28125E-03 6.39906E-03
 -1         5 9.51343E-04-1.08930E-03-2.65371E-03
 -1         6 1.48537E-03-9.51054E-04-2.51010E-03
 -1         7-5.04669E-16-9.21646E-04-2.59461E-03
 -1         8-5.27628E-04-8.91627E-04-2.67740E-03
 -1         9 2.05178E-03 2.26836E-03 6.41369E-03
 -1        10 1.23290E-03 2.27453E-03 6.41782E-03
 -1        11-4.37944E-04 2.27971E-03 6.40324E-03
 -1        12 3.44577E-04 2.27182E-03 6.40486E-03
 -1        13 1.42355E-03 4.47216E-04 1.43743E-03
 -1        14 2.21684E-03 5.06674E-04 1.49972E-03
 -1        15-5.24537E-16 5.19836E-04 1.46344E-03
 -1        16-7.87455E-04 5.32724E-04 1.42638E-03
 -1        17 1.23353E-03-1.02820E-03-2.55888E-03
 -1        18 7.20928E-04-9.28355E-04-2.57538E-03
 -1        19-2.56085E-04-9.14817E-04-2.61350E-03
 -1        20 1.83430E-04-9.81930E-04-2.68835E-03
 -1        21-2.48804E-03 2.27305E-03 6.42215E-03
 -1        22-3.36553E-03 2.29273E-03 6.41832E-03
 -1        23-1.48537E-03-9.51054E-04-2.51010E-03
 -1        24-1.99955E-03-7.53624E-04-2.53448E-03
 -1        25-1.23290E-03 2.27453E-03 6.41782E-03
 -1        26-2.92447E-03 2.28380E-03 6.41891E-03
 -1        27-2.11222E-03 2.28653E-03 6.41034E-03
 -1        28-2.21684E-03 5.06674E-04 1.49972E-03
 -1        29-2.99203E-03 5.92283E-04 1.48896E-03
 -1        30-7.20928E-04-9.28355E-04-2.57538E-03
 -1        31-1.73891E-03-8.60532E-04-2.49955E-03
 -1        32-1.23929E-03-8.14906E-04-2.62879E-03
 -1        33-7.37036E-04-1.24164E-03-3.14396E-03
 -1        34-1.15539E-03-1.12321E-03-3.02137E-03
 -1        35-4.24086E-16-1.09854E-03-3.09259E-03
 -1        36 4.10414E-04-1.07324E-03-3.16205E-03
 -1        37 8.59891E-05-1.73805E-03-4.38470E-03
 -1        38 1.31943E-04-1.56511E-03-4.20793E-03
 -1        39-4.71303E-16-1.52943E-03-4.30563E-03
 -1        40-4.68682E-05-1.49472E-03-4.40609E-03
 -1        41-9.65105E-04-1.19024E-03-3.05981E-03
 -1        42-5.50369E-04-1.10324E-03-3.07957E-03
 -1        43 1.95500E-04-1.09391E-03-3.10583E-03
 -1        44-1.27634E-04-1.14830E-03-3.17524E-03
 -1        45 1.15539E-03-1.12321E-03-3.02137E-03
 -1        46 1.54911E-03-9.55876E-04-3.04245E-03
 -1        47-1.31943E-04-1.56511E-03-4.20793E-03
 -1        48-1.80733E-04-1.32484E-03-4.23792E-03
 -1        49 5.50369E-04-1.10324E-03-3.07957E-03
 -1        50 1.34759E-03-1.04755E-03-3.00988E-03
 -1        51 9.49142E-04-1.00775E-03-3.12455E-03
 -1        52-8.06941E-04 1.37605E-03 3.56532E-03
 -1        53-1.26014E-03 1.27256E-03 3.45850E-03
 -1        54-3.01408E-16 1.25106E-03 3.52197E-03
 -1        55 4.47623E-04 1.22851E-03 3.58250E-03
 -1        56-1.01471E-03 5.14388E-05 1.64379E-04
 -1        57-1.58952E-03 5.79676E-05 1.71009E-04
 -1        58-3.68737E-16 5.94697E-05 1.67418E-04
 -1        59 5.64624E-04 6.07452E-05 1.63190E-04
 -1        60-1.05390E-03 1.33201E-03 3.48915E-03
 -1        61-6.00775E-04 1.25436E-03 3.51261E-03
 -1        62 2.13405E-04 1.24773E-03 3.53126E-03
 -1        63-1.41468E-04 1.29288E-03 3.59584E-03
 -1        64 1.26014E-03 1.27256E-03 3.45850E-03
 -1        65 1.69604E-03 1.12521E-03 3.47622E-03
 -1        66 1.58952E-03 5.79676E-05 1.71009E-04
 -1        67 2.13274E-03 6.73489E-05 1.70031E-04
 -1        68 6.00775E-04 1.25436E-03 3.51261E-03
 -1        69 1.47328E-03 1.20679E-03 3.44568E-03
 -1        70 1.03916E-03 1.17049E-03 3.55136E-03
 -1        71 5.69179E-04 1.57571E-03 4.12939E-03
 -1        72 9.10230E-04 1.47445E-03 4.02710E-03
 -1        73-1.53252E-16 1.45416E-03 4.09373E-03
 -1        74-3.23328E-04 1.43049E-03 4.15086E-03
 -1        75-9.70608E-05 1.97162E-03 5.12912E-03
 -1        76-1.52473E-04 1.82553E-03 4.98174E-03
 -1        77-2.31152E-16 1.79628E-03 5.05687E-03
 -1        78 5.41607E-05 1.76959E-03 5.13921E-03
 -1        79 7.68817E-04 1.52762E-03 4.07091E-03
 -1        80 4.10563E-04 1.46177E-03 4.06764E-03
 -1        81-1.45838E-04 1.44489E-03 4.11517E-03
 -1        82 6.65751E-05 1.50034E-03 4.14731E-03
 -1        83-9.10230E-04 1.47445E-03 4.02710E-03
 -1        84-1.19631E-03 1.32649E-03 4.04086E-03
 -1        85 1.52473E-04 1.82553E-03 4.98174E-03
 -1        86 2.04004E-04 1.62905E-03 5.00744E-03
 -1        87-4.10563E-04 1.46177E-03 4.06764E-03
 -1        88-1.04498E-03 1.40304E-03 4.02677E-03
 -1        89-7.10863E-04 1.37608E-03 4.10306E-03
 -1        90 0.00000E+00 0.00000E+00 0.00000E+00
 -1        91 0.00000E+00 0.00000E+00 0.00000E+00
 -1        92 0.00000E+00 0.00000E+00 0.00000E+00
 -1        93 0.00000E+00 0.00000E+00 0.00000E+00
 -1        94 5.69209E-04 4.94066E-04 1.62242E-03
 -1        95 8.88489E-04 5.73108E-04 1.69912E-03
 -1        96-7.05545E-17 5.87648E-04 1.65434E-03
 -1        97-3.15606E-04 6.03555E-04 1.61341E-03
 -1        98 0.00000E+00 0.00000E+00 0.00000E+00
 -1        99 0.00000E+00 0.00000E+00 0.00000E+00
 -1       100 0.00000E+00 0.00000E+00 0.00000E+00
 -1       101 0.00000E+00 0.00000E+00 0.00000E+00
 -1       102 0.00000E+00 0.00000E+00 0.00000E+00
 -1       103 0.00000E+00 0.00000E+00 0.00000E+00
 -1       104-8.88489E-04 5.73108E-04 1.69912E-03
 -1       105-1.19637E-03 6.82301E-04 1.68928E-03
 -1       106 0.00000E+00 0.00000E+00 0.00000E+00
 -1       107 0.00000E+00 0.00000E+00 0.00000E+00
 -1       108 0.00000E+00 0.00000E+00 0.00000E+00
 -1       109 3.36553E-03 2.29273E-03 6.41832E-03
 -1       110 8.83791E-04 2.28125E-03 6.39906E-03
 -1       111 1.99955E-03-7.53624E-04-2.53448E-03
 -1       112 5.27628E-04-8.91627E-04-2.67740E-03
 -1       113 2.92447E-03 2.28380E-03 6.41891E-03
 -1       114 2.11222E-03 2.28653E-03 6.41034E-03
 -1       115 4.37944E-04 2.27971E-03 6.40324E-03
 -1       116 2.99203E-03 5.92283E-04 1.48896E-03
 -1       117 7.87455E-04 5.32724E-04 1.42638E-03
 -1       118 1.73891E-03-8.60532E-04-2.49955E-03
 -1       119 1.23929E-03-8.14906E-04-2.62879E-03
 -1       120 2.56085E-04-9.14817E-04-2.61350E-03
 -1       121-1.60125E-03 2.26334E-03 6.40788E-03
 -1       122-9.51343E-04-1.08930E-03-2.65371E-03
 -1       123-3.44577E-04 2.27182E-03 6.40486E-03
 -1       124-2.05178E-03 2.26836E-03 6.41369E-03
 -1       125-1.42355E-03 4.47216E-04 1.43743E-03
 -1       126-1.83430E-04-9.81930E-04-2.68835E-03
 -1       127-1.23353E-03-1.02820E-03-2.55888E-03
 -1       128-1.54911E-03-9.55876E-04-3.04245E-03
 -1       129-4.10414E-04-1.07324E-03-3.16205E-03
 -1       130 1.80733E-04-1.32484E-03-4.23792E-03
 -1       131 4.68682E-05-1.49472E-03-4.40609E-03
 -1       132-1.34759E-03-1.04755E-03-3.00988E-03
 -1       133-9.49142E-04-1.00775E-03-3.12455E-03
 -1       134-1.95500E-04-1.09391E-03-3.10583E-03
 -1       135 7.37036E-04-1.24164E-03-3.14396E-03
 -1       136-8.59891E-05-1.73805E-03-4.38470E-03
 -1       137 1.27634E-04-1.14830E-03-3.17524E-03
 -1       138 9.65105E-04-1.19024E-03-3.05981E-03
 -1       139-1.69604E-03 1.12521E-03 3.47622E-03
 -1       140-4.47623E-04 1.22851E-03 3.58250E-03
 -1       141-2.13274E-03 6.73489E-05 1.70031E-04
 -1       142-5.64624E-04 6.07452E-05 1.63190E-04
 -1       143-1.47328E-03 1.20679E-03 3.44568E-03
 -1       144-1.03916E-03 1.17049E-03 3.55136E-03
 -1       145-2.13405E-04 1.24773E-03 3.53126E-03
 -1       146 8.06941E-04 1.37605E-03 3.56532E-03
 -1       147 1.01471E-03 5.14388E-05 1.64379E-04
 -1       148 1.41468E-04 1.29288E-03 3.59584E-03
 -1       149 1.05390E-03 1.33201E-03 3.48915E-03
 -1       150 1.19631E-03 1.32649E-03 4.04086E-03
 -1       151 3.23328E-04 1.43049E-03 4.15086E-03
 -1       152-2.04004E-04 1.62905E-03 5.00744E-03
 -1       153-5.41607E-05 1.76959E-03 5.13921E-03
 -1       154 1.04498E-03 1.40304E-03 4.02677E-03
 -1       155 7.10863E-04 1.37608E-03 4.10306E-03
 -1       156 1.45838E-04 1.44489E-03 4.11517E-03
 -1       157-5.69179E-04 1.57571E-03 4.12939E-03
 -1       158 9.70608E-05 1.97162E-03 5.12912E-03
 -1       159-6.65751E-05 1.50034E-03 4.14731E-03
 -1       160-7.68817E-04 1.52762E-03 4.07091E-03
 -1       161 0.00000E+00 0.00000E+00 0.00000E+00
 -1       162 0.00000E+00 0.00000E+00 0.00000E+00
 -1       163 1.19637E-03 6.82301E-04 1.68928E-03
 -1       164 3.15606E-04 6.03555E-04 1.61341E-03
 -1       165 0.00000E+00 0.00000E+00 0.00000E+00
 -1       166 0.00000E+00 0.00000E+00 0.00000E+00
 -1       167 0.00000E+00 0.00000E+00 0.00000E+00
 -1       168 0.00000E+00 0.00000E+00 0.00000E+00
 -1       169-5.69209E-04 4.94066E-04 1.62242E-03
 -1       170 0.00000E+00 0.00000E+00 0.00000E+00
 -1       171 0.00000E+00 0.00000E+00 0.00000E+00
 -3
    1PSTEP                        16           1           1          
    1PGM                1.000000E+00                                  
    1PGK                7.144284E+05                                  
    1PHID                         -1                                  
    1PSUBC                         0                                  
    1PMODE                         8                                  
  100CL  108 1.34524E+02         171                     2    8MODAL      1
 -4  STRESS      6    1
 -5  SXX         1    4    1    1
 -5  SYY         1    4    2    2
 -5  SZZ         1    4    3    3
 -5  SXY         1    4    1    2
 -5  SYZ         1    4    2    3
 -5  SZX         1    4    3    1
 -1         1 5.04854E+06-2.82326E+06-6.43398E+05 9.63707E+06 1.08183E+06 2.51378E+07
 -1         2 6.19822E+06-5.10166E+06-1.61232E+06 1.49384E+07-4.73391E+05 2.41272E+07
 -1         3-4.10294E-06-1.08726E-06-1.25538E-05 1.37512E+07 2.16078E-06 3.87122E+07
 -1         4-2.20171E+06 5.72723E+05 1.81219E+06 8.57037E+06 1.33269E+06 4.20545E+07
 -1         5 1.51722E+08 3.21307E+06 5.41418E+05 9.19658E+06-5.99809E+05 1.91385E+07
 -1         6 2.36671E+08 4.51653E+06 1.70755E+06 1.91874E+07 3.61045E+05 1.55347E+07
 -1         7-1.00902E-05-8.84861E-06-6.90308E-06 1.63075E+07 3.32118E-07 4.59086E+07
 -1         8-8.40694E+07-6.06550E+05-1.60434E+06 5.51816E+06-1.01641E+06 5.40160E+07
 -1         9 5.41139E+06-2.46000E+06-6.67128E+05 1.29871E+07-7.20749E+05 2.32081E+07
 -1        10 2.21740E+06-4.25692E+06-5.59575E+06 1.38906E+07 1.57948E+05 3.23803E+07
 -1        11-7.87655E+05 1.98770E+06 1.51212E+06 1.15020E+07-4.44652E+05 3.91048E+07
 -1        12 1.00912E+06-2.66238E+06-4.02419E+06 8.29165E+06 1.51995E+06 3.46642E+07
 -1        13 6.49657E+07 1.51114E+06-1.60082E+06 3.96609E+04-6.25825E+05-4.73260E+06
 -1        14 9.99805E+07 3.53479E+05-1.31673E+06 7.68619E+06 4.39922E+05-7.62049E+06
 -1        15-2.94228E-06-1.26284E-06 2.40747E-07 5.46523E+06-1.15263E-06 1.53857E+07
 -1        16-3.55147E+07 4.67724E+05-1.25561E+05-2.70692E+06-1.23846E+06 2.16381E+07
 -1        17 1.95507E+08 3.73201E+06 1.26885E+06 1.53700E+07 4.34964E+05 1.57266E+07
 -1        18 1.16725E+08 2.24616E+06 1.88622E+06 1.72756E+07-1.26087E+04 3.11934E+07
 -1        19-4.14626E+07-6.70016E+05-7.97872E+05 1.10804E+07 3.54958E+04 4.86340E+07
 -1        20 3.15221E+07 1.07858E+06 3.06594E+05 6.14667E+06-9.77293E+05 3.73960E+07
 -1        21-6.19822E+06 5.10166E+06 1.61232E+06 1.49384E+07 4.73391E+05 2.41272E+07
 -1        22-1.06111E+07 4.16170E+06 3.12457E+06 8.01720E+06 2.27380E+06 2.45624E+07
 -1        23-2.36671E+08-4.51653E+06-1.70755E+06 1.91874E+07-3.61045E+05 1.55347E+07
 -1        24-3.18892E+08-4.58118E+06-3.31006E+06 3.70739E+06-1.26069E+06 1.71886E+07
 -1        25-2.21740E+06 4.25692E+06 5.59575E+06 1.38906E+07-1.57948E+05 3.23803E+07
 -1        26-7.79460E+06 6.44217E+06 3.02435E+06 1.14448E+07 3.06850E+05 2.31693E+07
 -1        27-5.70010E+06 3.97365E+06 7.18639E+06 8.18233E+06 1.37293E+06 3.41163E+07
 -1        28-9.99805E+07-3.53479E+05 1.31673E+06 7.68619E+06-4.39922E+05-7.62049E+06
 -1        29-1.36546E+08-6.46057E+05 8.34550E+05-3.89880E+06-1.31537E+06-6.13161E+06
 -1        30-1.16725E+08-2.24616E+06-1.88622E+06 1.72756E+07 1.26087E+04 3.11934E+07
 -1        31-2.77597E+08-5.05907E+06-2.51219E+06 1.05949E+07-2.33976E+05 1.52710E+07
 -1        32-1.99576E+08-2.42166E+06-3.42932E+06 4.86416E+06-9.05899E+05 3.56998E+07
 -1        33 1.33184E+08 4.65247E+06-1.45665E+06-1.42544E+07-1.39633E+06-3.18462E+07
 -1        34 2.08500E+08 5.41000E+06-4.62601E+05-2.68690E+07 9.38233E+05-2.74890E+07
 -1        35-6.95721E-06 7.35121E-06 3.89689E-06-2.32730E+07-2.06608E-07-6.55180E+07
 -1        36-7.40624E+07 1.64323E+05-1.92172E+06-9.76453E+06-2.64130E+06-7.56414E+07
 -1        37 1.68970E+08-4.37652E+06 4.80256E+06-6.79720E+04 1.55894E+06 6.46280E+05
 -1        38 2.64296E+08-2.30666E+06 3.01552E+06-1.40829E+06-8.21161E+05 1.07921E+06
 -1        39-9.22638E-06-3.11824E-06-1.03074E-06-1.01594E+06 4.71540E-07-2.86008E+06
 -1        40-9.38823E+07-1.07116E+06 8.19362E+05 3.83353E+05 2.31172E+06-3.96459E+06
 -1        41 1.72092E+08 3.80549E+06-1.50237E+06-2.21063E+07 1.11823E+06-2.73762E+07
 -1        42 1.03297E+08 4.06914E+06 3.72242E+06-2.43857E+07 2.41500E+04-4.73782E+07
 -1        43-3.66927E+07-1.32226E+06-1.44542E+06-1.68295E+07-6.79868E+04-6.86504E+07
 -1        44 2.77597E+07 3.62993E+06 2.18104E+06-1.03808E+07-2.45339E+06-5.50465E+07
 -1        45-2.08500E+08-5.41000E+06 4.62601E+05-2.68690E+07-9.38233E+05-2.74890E+07
 -1        46-2.79928E+08-4.81181E+06-1.90521E+06-7.52041E+06-2.93482E+06-2.94542E+07
 -1        47-2.64296E+08 2.30666E+06-3.01552E+06-1.40829E+06 8.21161E+05 1.07921E+06
 -1        48-3.55144E+08 1.73588E+06-2.63134E+06 6.13039E+05 3.27660E+06 8.88186E+05
 -1        49-1.03297E+08-4.06914E+06-3.72242E+06-2.43857E+07-2.41500E+04-4.73782E+07
 -1        50-2.44361E+08-6.67773E+06-1.01495E+06-1.62632E+07-5.53477E+05-2.68425E+07
 -1        51-1.75690E+08-3.45679E+06-5.90485E+06-8.87856E+06-2.25278E+06-5.29710E+07
 -1        52-1.18163E+08-4.86548E+06 5.05355E+06-1.12765E+07 1.94885E+06-2.55189E+07
 -1        53-1.83715E+08-3.60742E+06 4.98348E+06-2.53638E+07-1.37097E+06-2.26108E+07
 -1        54-1.32266E-05 1.54930E-06 6.83824E-07-2.20492E+07 4.31435E-07-6.20728E+07
 -1        55 6.52585E+07-1.77021E+06 1.28141E+06-8.03171E+06 3.85955E+06-7.14038E+07
 -1        56 7.54063E+06 2.21955E+05 1.61105E+06-1.73032E+05 2.96598E+05 7.65309E+06
 -1        57 1.13319E+07 8.24392E+05 2.03121E+06-1.36391E+07-1.87023E+05 1.27384E+07
 -1        58-1.08224E-05 4.44459E-06 3.93542E-07-9.69327E+06-2.42639E-07-2.72884E+07
 -1        59-4.02528E+06-7.21520E+05-2.92837E+05 4.52488E+06 5.26506E+05-3.83966E+07
 -1        60-1.52693E+08-2.71306E+06 5.66032E+06-2.02446E+07-1.71982E+06-2.19551E+07
 -1        61-9.03730E+07-3.54706E+06-2.78593E+06-2.30870E+07-5.17509E+04-4.29166E+07
 -1        62 3.21019E+07 9.89608E+05 1.25997E+06-1.52447E+07 1.45689E+05-6.49942E+07
 -1        63-2.37253E+07-4.73049E+06-1.66291E+06-8.05759E+06 3.56334E+06-4.96411E+07
 -1        64 1.83715E+08 3.60742E+06-4.98348E+06-2.53638E+07 1.37097E+06-2.26108E+07
 -1        65 2.48356E+08 2.16199E+06-2.55728E+06-6.21424E+06 4.09611E+06-2.37208E+07
 -1        66-1.13319E+07-8.24392E+05-2.03121E+06-1.36391E+07 1.87023E+05 1.27384E+07
 -1        67-1.58490E+07-1.59586E+06-2.25676E+06 6.44509E+06 6.23394E+05 1.00040E+07
 -1        68 9.03730E+07 3.54706E+06 2.78593E+06-2.30870E+07 5.17509E+04-4.29166E+07
 -1        69 2.16079E+08 4.84856E+06-3.44904E+06-1.42679E+07 6.80559E+05-2.17447E+07
 -1        70 1.54719E+08 1.49470E+06 4.34892E+06-7.46527E+06 3.19418E+06-4.75181E+07
 -1        71-9.24582E+07 7.04224E+06-5.54758E+06 1.68102E+07-3.78722E+06 2.91959E+07
 -1        72-1.44653E+08 5.34869E+06-3.57746E+06 3.51364E+07 2.09084E+06 1.85461E+07
 -1        73-1.72311E-05 2.09664E-07-7.64616E-07 2.89086E+07-8.51811E-07 8.13831E+07
 -1        74 5.13831E+07 1.27077E+06-1.89994E+06 6.58787E+06-5.88610E+06 9.89156E+07
 -1        75-1.40502E+08 4.00484E+06-1.36268E+07-1.84896E+06-2.89068E+06-4.01784E+06
 -1        76-2.21700E+08-2.10937E+06-1.34149E+07 2.34368E+06 1.60356E+06-3.10571E+06
 -1        77-1.46549E-05 3.88973E-07 2.35625E-07 2.18836E+06 2.27010E-08 6.16065E+06
 -1        78 7.87515E+07 4.76518E+06 7.49283E+05-1.10320E+06-4.51434E+06 6.59791E+06
 -1        79-1.21396E+08 2.11882E+06-6.55324E+06 2.72109E+07 1.38153E+06 2.13916E+07
 -1        80-6.60428E+07 7.77957E+06 9.17616E+06 3.13111E+07 2.62722E+05 5.03970E+07
 -1        81 2.34594E+07-3.25952E+06-2.76343E+06 1.79018E+07-7.39614E+05 8.81467E+07
 -1        82-1.37517E+07 9.40450E+06 7.28574E+06 9.70380E+06-5.63398E+06 6.48665E+07
 -1        83 1.44653E+08-5.34869E+06 3.57746E+06 3.51364E+07-2.09084E+06 1.85461E+07
 -1        84 1.94330E+08-4.56574E+06 1.42424E+06 2.07190E+06-7.96002E+06 2.39607E+07
 -1        85 2.21700E+08 2.10937E+06 1.34149E+07 2.34368E+06-1.60356E+06-3.10571E+06
 -1        86 2.95309E+08 5.91736E+06 1.43061E+07-8.83638E+05-6.07567E+06-3.67494E+06
 -1        87 6.60428E+07-7.77957E+06-9.17616E+06 3.13111E+07-2.62722E+05 5.03970E+07
 -1        88 1.67635E+08-8.65416E+06 7.99776E+05 1.76682E+07-2.80002E+06 1.96800E+07
 -1        89 1.16420E+08-6.79259E+06-1.11125E+07 4.88547E+06-6.13785E+06 6.14768E+07
 -1        90 2.29877E+08 9.85186E+07 9.85187E+07 1.54051E+07 2.25807E+01 9.07779E+07
 -1        91 3.55886E+08 1.52523E+08 1.52523E+08 3.14600E+07-1.29508E+01 1.06513E+08
 -1        92-1.75517E-05-7.75652E-06-7.72148E-06 3.44775E+07-1.26231E-07 9.70606E+07
 -1        93-1.26416E+08-5.41785E+07-5.41785E+07 3.78351E+07 3.64589E+01 8.85658E+07
 -1        94 5.84453E+07-1.12208E+07 1.63073E+07 2.52710E+06 6.45236E+06 5.36056E+06
 -1        95 9.38072E+07-5.18170E+06 1.44547E+07 1.42220E+07-3.70486E+06 4.49112E+06
 -1        96-1.44001E-05 1.52551E-06 1.51340E-06 1.22446E+07-1.10595E-07 3.44709E+07
 -1        97-3.33218E+07-5.13453E+06 1.84062E+06 1.59532E+06 1.04299E+07 4.00375E+07
 -1        98 2.96804E+08 1.27201E+08 1.27201E+08 2.35316E+07-6.20531E+00 9.83675E+07
 -1        99 1.71949E+08 7.36918E+07 7.36918E+07 3.28728E+07-6.31924E+00 1.02069E+08
 -1       100-6.10789E+07-2.61765E+07-2.61765E+07 3.62565E+07 1.77899E+01 9.25432E+07
 -1       101 4.41461E+07 1.89194E+07 1.89195E+07 2.65155E+07 5.78441E+01 8.99522E+07
 -1       102-3.55886E+08-1.52523E+08-1.52523E+08 3.14600E+07 1.29508E+01 1.06513E+08
 -1       103-4.83158E+08-2.07068E+08-2.07068E+08 5.39499E+07 4.74603E+01 1.04470E+08
 -1       104-9.38072E+07 5.18170E+06-1.44547E+07 1.42220E+07 3.70486E+06 4.49112E+06
 -1       105-1.22841E+08 1.20327E+06-1.18941E+07 1.10130E+06 1.35617E+07 4.85409E+06
 -1       106-1.71949E+08-7.36918E+07-7.36918E+07 3.28728E+07 6.31924E+00 1.02069E+08
 -1       107-4.18411E+08-1.79318E+08-1.79318E+08 4.28052E+07 3.90309E+01 1.05218E+08
 -1       108-2.98202E+08-1.27800E+08-1.27800E+08 4.58014E+07 6.95043E+01 9.67985E+07
 -1       109 1.06111E+07-4.16170E+06-3.12457E+06 8.01720E+06-2.27380E+06 2.45624E+07
 -1       110 2.20171E+06-5.72723E+05-1.81219E+06 8.57037E+06-1.33269E+06 4.20545E+07
 -1       111 3.18892E+08 4.58118E+06 3.31006E+06 3.70739E+06 1.26069E+06 1.71886E+07
 -1       112 8.40694E+07 6.06550E+05 1.60434E+06 5.51816E+06 1.01641E+06 5.40160E+07
 -1       113 7.79460E+06-6.44217E+06-3.02435E+06 1.14448E+07-3.06850E+05 2.31693E+07
 -1       114 5.70010E+06-3.97365E+06-7.18639E+06 8.18233E+06-1.37293E+06 3.41163E+07
 -1       115 7.87655E+05-1.98770E+06-1.51212E+06 1.15020E+07 4.44652E+05 3.91048E+07
 -1       116 1.36546E+08 6.46057E+05-8.34550E+05-3.89880E+06 1.31537E+06-6.13161E+06
 -1       117 3.55147E+07-4.67724E+05 1.25561E+05-2.70692E+06 1.23846E+06 2.16381E+07
 -1       118 2.77597E+08 5.05907E+06 2.51219E+06 1.05949E+07 2.33976E+05 1.52710E+07
 -1       119 1.99576E+08 2.42166E+06 3.42932E+06 4.86416E+06 9.05899E+05 3.56998E+07
 -1       120 4.14626E+07 6.70016E+05 7.97872E+05 1.10804E+07-3.54958E+04 4.86340E+07
 -1       121-5.04854E+06 2.82326E+06 6.43398E+05 9.63707E+06-1.08183E+06 2.51378E+07
 -1       122-1.51722E+08-3.21307E+06-5.41418E+05 9.19658E+06 5.99809E+05 1.91385E+07
 -1       123-1.00912E+06 2.66238E+06 4.02419E+06 8.29165E+06-1.51995E+06 3.46642E+07
 -1       124-5.41139E+06 2.46000E+06 6.67128E+05 1.29871E+07 7.20749E+05 2.32081E+07
 -1       125-6.49657E+07-1.51114E+06 1.60082E+06 3.96609E+04 6.25825E+05-4.73260E+06
 -1       126-3.15221E+07-1.07858E+06-3.06594E+05 6.14667E+06 9.77293E+05 3.73960E+07
 -1       127-1.95507E+08-3.73201E+06-1.26885E+06 1.53700E+07-4.34964E+05 1.57266E+07
 -1       128 2.79928E+08 4.81181E+06 1.90521E+06-7.52041E+06 2.93482E+06-2.94542E+07
 -1       129 7.40624E+07-1.64323E+05 1.92172E+06-9.76453E+06 2.64130E+06-7.56414E+07
 -1       130 3.55144E+08-1.73588E+06 2.63134E+06 6.13039E+05-3.27660E+06 8.88186E+05
 -1       131 9.38823E+07 1.07116E+06-8.19362E+05 3.83353E+05-2.31172E+06-3.96459E+06
 -1       132 2.44361E+08 6.67773E+06 1.01495E+06-1.62632E+07 5.53477E+05-2.68425E+07
 -1       133 1.75690E+08 3.45679E+06 5.90485E+06-8.87856E+06 2.25278E+06-5.29710E+07
 -1       134 3.66927E+07 1.32226E+06 1.44542E+06-1.68295E+07 6.79868E+04-6.86504E+07
 -1       135-1.33184E+08-4.65247E+06 1.45665E+06-1.42544E+07 1.39633E+06-3.18462E+07
 -1       136-1.68970E+08 4.37652E+06-4.80256E+06-6.79720E+04-1.55894E+06 6.46280E+05
 -1       137-2.77597E+07-3.62993E+06-2.18104E+06-1.03808E+07 2.45339E+06-5.50465E+07
 -1       138-1.72092E+08-3.80549E+06 1.50237E+06-2.21063E+07-1.11823E+06-2.73762E+07
 -1       139-2.48356E+08-2.16199E+06 2.55728E+06-6.21424E+06-4.09611E+06-2.37208E+07
 -1       140-6.52585E+07 1.77021E+06-1.28141E+06-8.03171E+06-3.85955E+06-7.14038E+07
 -1       141 1.58490E+07 1.59586E+06 2.25676E+06 6.44509E+06-6.23394E+05 1.00040E+07
 -1       142 4.02528E+06 7.21520E+05 2.92837E+05 4.52488E+06-5.26506E+05-3.83966E+07
 -1       143-2.16079E+08-4.84856E+06 3.44904E+06-1.42679E+07-6.80559E+05-2.17447E+07
 -1       144-1.54719E+08-1.49470E+06-4.34892E+06-7.46527E+06-3.19418E+06-4.75181E+07
 -1       145-3.21019E+07-9.89608E+05-1.25997E+06-1.52447E+07-1.45689E+05-6.49942E+07
 -1       146 1.18163E+08 4.86548E+06-5.05355E+06-1.12765E+07-1.94885E+06-2.55189E+07
 -1       147-7.54063E+06-2.21955E+05-1.61105E+06-1.73032E+05-2.96598E+05 7.65309E+06
 -1       148 2.37253E+07 4.73049E+06 1.66291E+06-8.05759E+06-3.56334E+06-4.96411E+07
 -1       149 1.52693E+08 2.71306E+06-5.66032E+06-2.02446E+07 1.71982E+06-2.19551E+07
 -1       150-1.94330E+08 4.56574E+06-1.42424E+06 2.07190E+06 7.96002E+06 2.39607E+07
 -1       151-5.13831E+07-1.27077E+06 1.89994E+06 6.58787E+06 5.88610E+06 9.89156E+07
 -1       152-2.95309E+08-5.91736E+06-1.43061E+07-8.83638E+05 6.07567E+06-3.67494E+06
 -1       153-7.87515E+07-4.76518E+06-7.49283E+05-1.10320E+06 4.51434E+06 6.59791E+06
 -1       154-1.67635E+08 8.65416E+06-7.99776E+05 1.76682E+07 2.80002E+06 1.96800E+07
 -1       155-1.16420E+08 6.79259E+06 1.11125E+07 4.88547E+06 6.13785E+06 6.14768E+07
 -1       156-2.34594E+07 3.25952E+06 2.76343E+06 1.79018E+07 7.39614E+05 8.81467E+07
 -1       157 9.24582E+07-7.04224E+06 5.54758E+06 1.68102E+07 3.78722E+06 2.91959E+07
 -1       158 1.40502E+08-4.00484E+06 1.36268E+07-1.84896E+06 2.89068E+06-4.01784E+06
 -1       159 1.37517E+07-9.40450E+06-7.28574E+06 9.70380E+06 5.63398E+06 6.48665E+07
 -1       160 1.21396E+08-2.11882E+06 6.55324E+06 2.72109E+07-1.38153E+06 2.13916E+07
 -1       161 4.83158E+08 2.07068E+08 2.07068E+08 5.39499E+07-4.74603E+01 1.04470E+08
 -1       162 1.26416E+08 5.41785E+07 5.41785E+07 3.78351E+07-3.64589E+01 8.85658E+07
 -1       163 1.22841E+08-1.20327E+06 1.18941E+07 1.10130E+06-1.35617E+07 4.85409E+06
 -1       164 3.33218E+07 5.13453E+06-1.84062E+06 1.59532E+06-1.04299E+07 4.00375E+07
 -1       165 4.18411E+08 1.79318E+08 1.79318E+08 4.28052E+07-3.90309E+01 1.05218E+08
 -1       166 2.98202E+08 1.27800E+08 1.27800E+08 4.58014E+07-6.95043E+01 9.67985E+07
 -1       167 6.10789E+07 2.61765E+07 2.61765E+07 3.62565E+07-1.77899E+01 9.25432E+07
 -1       168-2.29877E+08-9.85186E+07-9.85187E+07 1.54051E+07-2.25807E+01 9.07779E+07
 -1       169-5.84453E+07 1.12208E+07-1.63073E+07 2.52710E+06-6.45236E+06 5.36056E+06
 -1       170-4.41461E+07-1.89194E+07-1.89195E+07 2.65155E+07-5.78441E+01 8.99522E+07
 -1       171-2.96804E+08-1.27201E+08-1.27201E+08 2.35316E+07 6.20531E+00 9.83675E+07
 -3
    1PSTEP                        17           1           1          
    1PGM                1.000000E+00                                  
    1PGK                1.914135E+06                                  
    1PHID                         -1                                  
    1PSUBC                         0                                  
    1PMODE                         9                                  
  100CL  109 2.20194E+02         171                     2    9MODAL      1
 -4  DISP        4    1
 -5  D1          1    2    1    0
 -5  D2          1    2    2    0
 -5  D3          1    2    3    0
 -5  ALL         1    2    0    0    1ALL
 -1         1-4.33681E-18-6.26292E-03-6.26292E-03
 -1         2-2.59937E-16-6.24150E-03 1.75641E-17
 -1         3-2.22045E-16-3.91180E-16 2.68882E-17
 -1         4-2.08167E-17-4.54498E-16-6.24150E-03
 -1         5-4.46691E-17-3.62319E-03-3.62319E-03
 -1         6-1.18829E-16-3.61239E-03 3.12792E-17
 -1         7-1.46259E-16 5.23561E-16 1.53957E-17
 -1         8-7.71952E-17 2.35233E-16-3.61239E-03
 -1         9-7.62471E-06-6.25319E-03-3.12787E-03
 -1        10-2.43295E-16-3.12269E-03 6.93889E-18
 -1        11-1.16226E-16-4.60569E-16-3.12269E-03
 -1        12 7.62471E-06-3.12787E-03-6.25319E-03
 -1        13-6.07153E-17-5.56119E-03-5.56119E-03
 -1        14-1.90711E-16-5.54147E-03 1.11239E-16
 -1        15-2.08817E-16-7.04731E-17 7.09068E-17
 -1        16-1.99493E-17 1.01915E-17-5.54147E-03
 -1        17-1.86760E-04-3.61838E-03-1.80948E-03
 -1        18-1.39347E-16-1.80732E-03 3.96818E-17
 -1        19-1.12540E-16 3.42445E-16-1.80732E-03
 -1        20 1.86760E-04-1.80948E-03-3.61838E-03
 -1        21-1.96891E-16 6.24150E-03 4.23923E-17
 -1        22 2.25514E-17 6.26292E-03-6.26292E-03
 -1        23-1.71683E-16 3.61239E-03 4.55365E-17
 -1        24-9.43256E-17 3.62319E-03-3.62319E-03
 -1        25-2.14238E-16 3.12269E-03 4.64039E-17
 -1        26 7.62471E-06 6.25319E-03-3.12787E-03
 -1        27-7.62471E-06 3.12787E-03-6.25319E-03
 -1        28-1.87350E-16 5.54147E-03 3.14419E-17
 -1        29-6.85216E-17 5.56119E-03-5.56119E-03
 -1        30-1.51219E-16 1.80732E-03 4.33681E-17
 -1        31 1.86760E-04 3.61838E-03-1.80948E-03
 -1        32-1.86760E-04 1.80948E-03-3.61838E-03
 -1        33-3.07913E-17 2.03662E-03 2.03662E-03
 -1        34 6.72205E-17 2.03176E-03-5.46438E-17
 -1        35 6.02816E-17 2.20093E-17-5.05238E-17
 -1        36-3.24176E-17 1.82146E-17 2.03176E-03
 -1        37-7.80626E-17-8.91995E-04-8.91995E-04
 -1        38-2.77556E-17-8.88575E-04-3.72966E-17
 -1        39-5.24754E-17 2.45463E-16-2.99240E-17
 -1        40-1.19262E-16 3.19406E-16-8.88575E-04
 -1        41-2.14761E-04 2.03435E-03 1.01770E-03
 -1        42 5.63785E-17 1.01620E-03-5.61617E-17
 -1        43 8.13152E-18 1.99493E-17 1.01620E-03
 -1        44 2.14761E-04 1.01770E-03 2.03435E-03
 -1        45 5.85469E-17-2.03176E-03 4.77049E-18
 -1        46-3.38271E-17-2.03662E-03 2.03662E-03
 -1        47-8.06003E-17 8.88575E-04 3.90313E-18
 -1        48-8.93383E-17 8.91995E-04-8.91995E-04
 -1        49 6.64616E-17-1.01620E-03-2.42861E-17
 -1        50 2.14761E-04-2.03435E-03 1.01770E-03
 -1        51-2.14761E-04-1.01770E-03 2.03435E-03
 -1        52 2.38524E-16 6.01740E-03 6.01740E-03
 -1        53 1.74773E-16 5.99672E-03 2.61835E-17
 -1        54 2.25297E-16-1.25009E-16 2.78640E-17
 -1        55 2.96312E-16-1.09799E-16 5.99672E-03
 -1        56 1.02132E-16 4.52496E-03 4.52496E-03
 -1        57 1.34441E-16 4.50883E-03-9.41087E-17
 -1        58 1.55691E-16-1.93639E-16-5.46438E-17
 -1        59 1.17961E-16-1.46584E-16 4.50883E-03
 -1        60-7.96331E-05 6.00863E-03 3.00308E-03
 -1        61 2.00794E-16 3.00138E-03 1.82688E-17
 -1        62 2.55221E-16-1.46150E-16 3.00138E-03
 -1        63 7.96331E-05 3.00308E-03 6.00863E-03
 -1        64 2.68123E-16-5.99672E-03 2.80808E-17
 -1        65 3.38488E-16-6.01740E-03 6.01740E-03
 -1        66 1.83230E-16-4.50883E-03-3.19840E-17
 -1        67 1.43982E-16-4.52496E-03 4.52496E-03
 -1        68 2.44813E-16-3.00138E-03 2.13588E-17
 -1        69 7.96331E-05-6.00863E-03 3.00308E-03
 -1        70-7.96331E-05-3.00308E-03 6.00863E-03
 -1        71 2.07950E-16 4.83741E-03 4.83741E-03
 -1        72 1.93422E-16 4.83321E-03 1.47289E-16
 -1        73 1.72171E-16 2.35597E-16 1.36609E-16
 -1        74 1.83881E-16 2.22695E-16 4.83321E-03
 -1        75 3.09648E-16 6.15908E-03 6.15908E-03
 -1        76 1.97325E-16 6.12797E-03 1.09288E-16
 -1        77 2.23047E-16 7.57044E-17 1.14925E-16
 -1        78 3.26074E-16 8.73867E-17 6.12797E-03
 -1        79 2.00694E-04 4.83522E-03 2.41898E-03
 -1        80 1.82363E-16 2.41644E-03 1.36284E-16
 -1        81 1.87350E-16 2.49258E-16 2.41644E-03
 -1        82-2.00694E-04 2.41898E-03 4.83522E-03
 -1        83 1.50487E-16-4.83321E-03 1.17744E-16
 -1        84 1.65666E-16-4.83741E-03 4.83741E-03
 -1        85 2.39826E-16-6.12797E-03 1.24466E-16
 -1        86 3.38705E-16-6.15908E-03 6.15908E-03
 -1        87 1.63064E-16-2.41644E-03 1.33140E-16
 -1        88-2.00694E-04-4.83522E-03 2.41898E-03
 -1        89 2.00694E-04-2.41898E-03 4.83522E-03
 -1        90 0.00000E+00 0.00000E+00 0.00000E+00
 -1        91 0.00000E+00 0.00000E+00 0.00000E+00
 -1        92 0.00000E+00 0.00000E+00 0.00000E+00
 -1        93 0.00000E+00 0.00000E+00 0.00000E+00
 -1        94 6.67869E-17 2.55214E-03 2.55214E-03
 -1        95 1.18178E-16 2.57433E-03 6.98226E-17
 -1        96 8.98804E-17 1.31080E-16 5.94143E-17
 -1        97 2.99240E-17 1.17528E-16 2.57433E-03
 -1        98 0.00000E+00 0.00000E+00 0.00000E+00
 -1        99 0.00000E+00 0.00000E+00 0.00000E+00
 -1       100 0.00000E+00 0.00000E+00 0.00000E+00
 -1       101 0.00000E+00 0.00000E+00 0.00000E+00
 -1       102 0.00000E+00 0.00000E+00 0.00000E+00
 -1       103 0.00000E+00 0.00000E+00 0.00000E+00
 -1       104 6.15827E-17-2.57433E-03 5.03070E-17
 -1       105 6.93889E-18-2.55214E-03 2.55214E-03
 -1       106 0.00000E+00 0.00000E+00 0.00000E+00
 -1       107 0.00000E+00 0.00000E+00 0.00000E+00
 -1       108 0.00000E+00 0.00000E+00 0.00000E+00
 -1       109-4.35416E-16-6.26292E-03 6.26292E-03
 -1       110-4.60569E-16-4.15466E-16 6.24150E-03
 -1       111-1.30538E-16-3.62319E-03 3.62319E-03
 -1       112-1.98084E-16 1.86374E-16 3.61239E-03
 -1       113 7.62471E-06-6.25319E-03 3.12787E-03
 -1       114-7.62471E-06-3.12787E-03 6.25319E-03
 -1       115-3.41036E-16-3.93782E-16 3.12269E-03
 -1       116-3.25261E-16-5.56119E-03 5.56119E-03
 -1       117-3.51607E-16 7.89299E-17 5.54147E-03
 -1       118 1.86760E-04-3.61838E-03 1.80948E-03
 -1       119-1.86760E-04-1.80948E-03 3.61838E-03
 -1       120-1.76955E-16 2.05131E-16 1.80732E-03
 -1       121-3.53884E-16 6.26292E-03 6.26292E-03
 -1       122-2.32182E-16 3.62319E-03 3.62319E-03
 -1       123 7.62471E-06 3.12787E-03 6.25319E-03
 -1       124-7.62471E-06 6.25319E-03 3.12787E-03
 -1       125-3.31549E-16 5.56119E-03 5.56119E-03
 -1       126 1.86760E-04 1.80948E-03 3.61838E-03
 -1       127-1.86760E-04 3.61838E-03 1.80948E-03
 -1       128 1.73472E-16 2.03662E-03-2.03662E-03
 -1       129 1.74773E-16-2.62377E-17-2.03176E-03
 -1       130 3.51282E-17-8.91995E-04 8.91995E-04
 -1       131 1.47451E-17 1.80411E-16 8.88575E-04
 -1       132 2.14761E-04 2.03435E-03-1.01770E-03
 -1       133-2.14761E-04 1.01770E-03-2.03435E-03
 -1       134 1.11673E-16 6.13658E-17-1.01620E-03
 -1       135 1.65798E-16-2.03662E-03-2.03662E-03
 -1       136-2.81893E-18 8.91995E-04 8.91995E-04
 -1       137 2.14761E-04-1.01770E-03-2.03435E-03
 -1       138-2.14761E-04-2.03435E-03-1.01770E-03
 -1       139 9.08561E-17 6.01740E-03-6.01740E-03
 -1       140 1.45717E-16-1.33682E-16-5.99672E-03
 -1       141 1.71954E-16 4.52496E-03-4.52496E-03
 -1       142 1.99981E-16-1.73256E-16-4.50883E-03
 -1       143 7.96331E-05 6.00863E-03-3.00308E-03
 -1       144-7.96331E-05 3.00308E-03-6.00863E-03
 -1       145 1.92337E-16-1.58185E-16-3.00138E-03
 -1       146 1.89952E-16-6.01740E-03-6.01740E-03
 -1       147 2.18575E-16-4.52496E-03-4.52496E-03
 -1       148 7.96331E-05-3.00308E-03-6.00863E-03
 -1       149-7.96331E-05-6.00863E-03-3.00308E-03
 -1       150 1.72605E-16 4.83741E-03-4.83741E-03
 -1       151 1.53957E-16 2.41669E-16-4.83321E-03
 -1       152 9.95298E-17 6.15908E-03-6.15908E-03
 -1       153 1.11890E-16 8.81456E-17-6.12797E-03
 -1       154-2.00694E-04 4.83522E-03-2.41898E-03
 -1       155 2.00694E-04 2.41898E-03-4.83522E-03
 -1       156 1.63931E-16 2.60642E-16-2.41644E-03
 -1       157 1.35742E-16-4.83741E-03-4.83741E-03
 -1       158 1.47885E-16-6.15908E-03-6.15908E-03
 -1       159-2.00694E-04-2.41898E-03-4.83522E-03
 -1       160 2.00694E-04-4.83522E-03-2.41898E-03
 -1       161 0.00000E+00 0.00000E+00 0.00000E+00
 -1       162 0.00000E+00 0.00000E+00 0.00000E+00
 -1       163 1.68051E-16 2.55214E-03-2.55214E-03
 -1       164 1.45541E-16 1.55387E-16-2.57433E-03
 -1       165 0.00000E+00 0.00000E+00 0.00000E+00
 -1       166 0.00000E+00 0.00000E+00 0.00000E+00
 -1       167 0.00000E+00 0.00000E+00 0.00000E+00
 -1       168 0.00000E+00 0.00000E+00 0.00000E+00
 -1       169 1.11239E-16-2.55214E-03-2.55214E-03
 -1       170 0.00000E+00 0.00000E+00 0.00000E+00
 -1       171 0.00000E+00 0.00000E+00 0.00000E+00
 -3
    1PSTEP                        18           1           1          
    1PGM                1.000000E+00                                  
    1PGK                1.914135E+06                                  
    1PHID                         -1                                  
    1PSUBC                         0                                  
    1PMODE                         9                                  
  100CL  109 2.20194E+02         171                     2    9MODAL      1
 -4  STRESS      6    1
 -5  SXX         1    4    1    1
 -5  SYY         1    4    2    2
 -5  SZZ         1    4    3    3
 -5  SXY         1    4    1    2
 -5  SYZ         1    4    2    3
 -5  SZX         1    4    3    1
 -1         1 3.61061E-06-5.38771E+06 5.38771E+06-1.73613E+06-1.68802E-05-1.73613E+06
 -1         2-4.85401E-05-6.18221E-05-5.48209E-05-1.12676E+07-2.28388E+06-9.52883E-06
 -1         3-7.88298E-06-4.43754E-05 1.04730E-05 2.12246E-05 1.68213E-05-3.15950E-06
 -1         4 1.77263E-05 4.97163E-05 2.92556E-05-1.72034E-05 2.28388E+06-1.12676E+07
 -1         5 5.94689E-05-2.60015E+06 2.60015E+06-8.46305E+07 1.68044E-05-8.46305E+07
 -1         6-6.84410E-05-1.32402E-04-4.16327E-05-3.13742E+08-1.05042E+06 1.55636E-06
 -1         7 3.45825E-05 1.24892E-04 4.75595E-05-5.79775E-06-1.31900E-05 6.61136E-06
 -1         8 1.29302E-06-5.69029E-05-3.02796E-06-3.53076E-06 1.05042E+06-3.13742E+08
 -1         9 1.99149E+07-4.56369E+05 7.12742E+06-6.52069E+06-9.91477E+05 3.58675E+05
 -1        10-1.07777E-06 7.87689E-06 5.83276E-06-4.49503E+06-1.29240E+06-5.94649E-06
 -1        11-9.27597E-06-2.76580E-05 8.90344E-07 1.32958E-06 1.29240E+06-4.49503E+06
 -1        12-1.99149E+07-7.12742E+06 4.56369E+05 3.58675E+05 9.91477E+05-6.52069E+06
 -1        13 5.94568E-06-5.10549E+06 5.10549E+06-4.17195E+07 1.23391E-05-4.17195E+07
 -1        14-4.78243E-05-6.44419E-05-4.79468E-05-1.60933E+08-2.22285E+06-6.14021E-06
 -1        15-6.71030E-06 8.65976E-06-5.76621E-06-8.30990E-06 1.27009E-05 2.54814E-06
 -1        16 5.23292E-05 1.18598E-04 3.70517E-05 1.19850E-06 2.22285E+06-1.60933E+08
 -1        17 1.16788E+07 3.89937E+05 4.01638E+06-1.99214E+08-4.34993E+05-1.35064E+07
 -1        18-3.71691E-05-3.93256E-05-2.97703E-05-1.28186E+08-6.15430E+05 3.71027E-06
 -1        19-5.82215E-05-1.48259E-04-5.11934E-05-5.61995E-06 6.15430E+05-1.28186E+08
 -1        20-1.16788E+07-4.01638E+06-3.89937E+05-1.35064E+07 4.34993E+05-1.99214E+08
 -1        21 7.69878E-06 3.01106E-05-4.47035E-08 1.12676E+07-2.28388E+06 8.49996E-06
 -1        22-1.06784E-04 5.38771E+06-5.38771E+06 1.73613E+06-5.74382E-05-1.73613E+06
 -1        23-7.52278E-05-1.46697E-04-7.54609E-05 3.13742E+08-1.05042E+06-7.27217E-06
 -1        24 7.62478E-05 2.60015E+06-2.60015E+06 8.46305E+07 4.89461E-05-8.46305E+07
 -1        25 2.03195E-05 4.46266E-05 2.56441E-05 4.49503E+06-1.29240E+06 1.11976E-06
 -1        26-1.99149E+07 4.56369E+05-7.12742E+06 6.52069E+06-9.91477E+05 3.58675E+05
 -1        27 1.99149E+07 7.12742E+06-4.56369E+05-3.58675E+05 9.91477E+05-6.52069E+06
 -1        28-3.25609E-05-4.16590E-05-5.84754E-05 1.60933E+08-2.22285E+06 2.23955E-06
 -1        29-4.65590E-05 5.10549E+06-5.10549E+06 4.17195E+07-1.22639E-05-4.17195E+07
 -1        30-3.35227E-05-5.27123E-05-1.41803E-05 1.28186E+08-6.15430E+05 1.68271E-07
 -1        31-1.16788E+07-3.89937E+05-4.01638E+06 1.99214E+08-4.34993E+05-1.35064E+07
 -1        32 1.16788E+07 4.01638E+06 3.89937E+05 1.35064E+07 4.34993E+05-1.99214E+08
 -1        33-1.04214E-04 1.29496E+06-1.29496E+06-9.91293E+07-1.37992E-05-9.91293E+07
 -1        34 3.13959E-05 1.22371E-04 4.14685E-05-3.62553E+08 5.65742E+05-1.29576E-06
 -1        35-4.70499E-05-6.14575E-05-1.85249E-05 5.38567E-06-4.26098E-06 5.94771E-06
 -1        36-3.25838E-05-1.20048E-05-7.37957E-07 1.84874E-05-5.65742E+05-3.62553E+08
 -1        37-2.43689E-05-7.91055E+05 7.91055E+05-9.41444E+07 1.32073E-05-9.41444E+07
 -1        38-2.84979E-06 3.06054E-05 2.19050E-05-3.40634E+08-3.11558E+05-4.78956E-06
 -1        39 4.38609E-06 5.69772E-05 2.64994E-05 9.55424E-06-1.12572E-05 3.00918E-06
 -1        40 2.86227E-05 7.83711E-05 3.19732E-05 5.28526E-08 3.11558E+05-3.40634E+08
 -1        41-6.36048E+06-7.46004E+05-2.60100E+06-2.30889E+08 2.57974E+05-1.63808E+07
 -1        42-1.31689E-05 2.15574E-05 3.83558E-06-1.48321E+08 3.07767E+05 2.52173E-06
 -1        43-2.78163E-05-9.34463E-06 2.19818E-06 1.08678E-05-3.07767E+05-1.48321E+08
 -1        44 6.36048E+06 2.60100E+06 7.46004E+05-1.63808E+07-2.57974E+05-2.30889E+08
 -1        45 3.33524E-05 1.38093E-04 7.56860E-05 3.62553E+08 5.65742E+05-2.11695E-06
 -1        46-7.09146E-05-1.29496E+06 1.29496E+06 9.91293E+07-9.64963E-06-9.91293E+07
 -1        47-2.02400E-05 8.08900E-06 1.19541E-06 3.40634E+08-3.11558E+05-7.29796E-06
 -1        48 1.46615E-05 7.91055E+05-7.91055E+05 9.41444E+07 9.07747E-06-9.41444E+07
 -1        49 3.11270E-06 5.82303E-05 4.02594E-05 1.48321E+08 3.07767E+05 2.31927E-06
 -1        50 6.36048E+06 7.46004E+05 2.60100E+06 2.30889E+08 2.57974E+05-1.63808E+07
 -1        51-6.36048E+06-2.60100E+06-7.46004E+05 1.63808E+07-2.57974E+05-2.30889E+08
 -1        52-9.35238E-07 4.42709E+06-4.42709E+06-2.28346E+07 1.56995E-05-2.28346E+07
 -1        53-8.14465E-06 7.71973E-06-1.40013E-05-1.19680E+08 1.58683E+06-3.39397E-06
 -1        54-6.77704E-06 3.01595E-06 6.44080E-07-8.90395E-06 5.87588E-06-2.97722E-06
 -1        55-3.59071E-06 5.99569E-05 3.08016E-05 2.41387E-07-1.58683E+06-1.19680E+08
 -1        56-6.88282E-05 3.89662E+06-3.89662E+06-6.25272E+07 1.10448E-05-6.25272E+07
 -1        57 2.60677E-05 8.36775E-05 3.90797E-05-2.43085E+08 1.59402E+06-1.85345E-06
 -1        58-2.63449E-05-2.93073E-05-3.49610E-06-2.50561E-06-1.37571E-06 2.57312E-06
 -1        59-1.83671E-05 3.96101E-05 8.73953E-06 2.63774E-06-1.59402E+06-2.43085E+08
 -1        60-2.28575E+07-5.15101E+05-6.43362E+06-7.12543E+07 5.51418E+05 8.15335E+05
 -1        61-5.01331E-06 6.39725E-06 1.62434E-06-4.75808E+07 1.03541E+06-2.79059E-06
 -1        62-1.79043E-05 2.65148E-06 4.66488E-06-4.80434E-06-1.03541E+06-4.75808E+07
 -1        63 2.28575E+07 6.43362E+06 5.15101E+05 8.15335E+05-5.51418E+05-7.12543E+07
 -1        64-1.94954E-05-3.66736E-05-5.91995E-06 1.19680E+08 1.58683E+06-2.01163E-06
 -1        65 4.79810E-06-4.42709E+06 4.42709E+06 2.28346E+07 8.70335E-07-2.28346E+07
 -1        66 9.49111E-06 6.41560E-05 3.73460E-05 2.43085E+08 1.59402E+06 1.85150E-06
 -1        67-3.69660E-05-3.89662E+06 3.89662E+06 6.25272E+07-1.01121E-06-6.25272E+07
 -1        68-1.83171E-05-2.48380E-05-1.27744E-05 4.75808E+07 1.03541E+06-3.19839E-06
 -1        69 2.28575E+07 5.15101E+05 6.43362E+06 7.12543E+07 5.51418E+05 8.15335E+05
 -1        70-2.28575E+07-6.43362E+06-5.15101E+05-8.15335E+05-5.51418E+05-7.12543E+07
 -1        71 4.79013E-05 1.40596E+06-1.40596E+06 3.82315E+07-1.20391E-05 3.82315E+07
 -1        72 9.45947E-06 1.41495E-05-6.21218E-06 2.81538E+08 7.16862E+05-1.09302E-06
 -1        73 1.99492E-05 3.96227E-06 1.13025E-05 3.08253E-06 2.06817E-06 1.00887E-06
 -1        74 2.27721E-05-4.05060E-05-3.16109E-05-4.10638E-06-7.16862E+05 2.81538E+08
 -1        75 1.22816E-05 8.66404E+06-8.66404E+06 8.13547E+06 9.70266E-06 8.13547E+06
 -1        76-1.24332E-07 1.13621E-05-5.56465E-06 8.20011E+07 4.02550E+06-5.92787E-07
 -1        77 1.15856E-05 6.89170E-06 1.40182E-05 2.06169E-06 3.50764E-06-1.07581E-06
 -1        78 1.51121E-05 1.57100E-05-2.79956E-06 1.98255E-06-4.02550E+06 8.20011E+07
 -1        79-5.02053E+06-6.65328E+05-2.79750E+06 1.59920E+08 3.72635E+05-1.18651E+07
 -1        80 1.40000E-05 7.09092E-06 2.01791E-06 1.09955E+08 3.44227E+05-2.88594E-07
 -1        81 3.06250E-05 3.90917E-06-5.22414E-07 1.79629E-07-3.44227E+05 1.09955E+08
 -1        82 5.02053E+06 2.79750E+06 6.65328E+05-1.18651E+07-3.72635E+05 1.59920E+08
 -1        83 2.54828E-05 1.54006E-05-4.64948E-06-2.81538E+08 7.16862E+05 7.18748E-07
 -1        84 5.67440E-05-1.40596E+06 1.40596E+06-3.82315E+07 9.29344E-07 3.82315E+07
 -1        85 8.67993E-06-1.31223E-05 2.82656E-06-8.20011E+07 4.02550E+06-7.95466E-07
 -1        86 3.28230E-05-8.66404E+06 8.66404E+06-8.13547E+06-3.94715E-06 8.13547E+06
 -1        87 2.29344E-05 1.14202E-05 2.65433E-06-1.09955E+08 3.44227E+05 9.80741E-07
 -1        88 5.02053E+06 6.65328E+05 2.79750E+06-1.59920E+08 3.72635E+05-1.18651E+07
 -1        89-5.02053E+06-2.79750E+06-6.65328E+05 1.18651E+07-3.72635E+05 1.59920E+08
 -1        90 8.40554E-06 6.07866E+01-6.07866E+01 2.06580E+08 1.74874E-07 2.06580E+08
 -1        91 3.77715E-05 1.64577E-05 1.63434E-05 2.10155E+08-1.28331E+01 5.01960E-06
 -1        92 2.51275E-05 1.06167E-05 1.06961E-05 1.11037E-05-1.47359E-08 3.89339E-06
 -1        93-8.57827E-06-3.53820E-06-3.66323E-06 9.54722E-06 1.28331E+01 2.10155E+08
 -1        94 2.55156E-05-6.76896E+06 6.76896E+06 1.24306E+08-5.15220E-06 1.24306E+08
 -1        95 1.91620E-05 1.89152E-06-2.50014E-06 2.47650E+08-3.37749E+06 1.16951E-06
 -1        96 1.89136E-05-6.82357E-07 6.32904E-06 1.49710E-06 1.58363E-06 1.22993E-06
 -1        97 7.15675E-06-2.36742E-05-1.37687E-05-3.53996E-06 3.37749E+06 2.47650E+08
 -1        98 2.70167E+07 1.15785E+07 1.15787E+07 2.08372E+08-6.36636E+00 1.03307E+08
 -1        99 3.13916E-05 1.35287E-05 1.34727E-05 1.05077E+08-6.46274E+00 4.24637E-06
 -1       100 9.50550E-06 4.15177E-06 3.89783E-06 1.10837E-05 6.46274E+00 1.05077E+08
 -1       101-2.70167E+07-1.15787E+07-1.15785E+07 1.03307E+08 6.36636E+00 2.08372E+08
 -1       102 1.27531E-05 5.32070E-06 5.24937E-06-2.10155E+08-1.28331E+01 3.18885E-06
 -1       103-1.85372E-05-6.07866E+01 6.07866E+01-2.06580E+08-7.53498E-08 2.06580E+08
 -1       104 1.61179E-05 5.30947E-06-1.74996E-06-2.47650E+08-3.37749E+06-3.13390E-07
 -1       105 2.17846E-05 6.76896E+06-6.76896E+06-1.24306E+08 3.69006E-06 1.24306E+08
 -1       106 1.93755E-05 8.36459E-06 8.43432E-06-1.05077E+08-6.46274E+00 3.80306E-06
 -1       107-2.70167E+07-1.15785E+07-1.15787E+07-2.08372E+08-6.36636E+00 1.03307E+08
 -1       108 2.70167E+07 1.15787E+07 1.15785E+07-1.03307E+08 6.36636E+00 2.08372E+08
 -1       109 2.78455E-05 5.38771E+06-5.38771E+06-1.73613E+06-1.57865E-04 1.73613E+06
 -1       110-3.00724E-05 2.13273E-06-4.45060E-05-1.60669E-05 2.28388E+06 1.12676E+07
 -1       111-6.52088E-05 2.60015E+06-2.60015E+06-8.46305E+07 6.44329E-06 8.46305E+07
 -1       112-8.35124E-05-1.31782E-04-8.25454E-06 4.81145E-06 1.05042E+06 3.13742E+08
 -1       113-1.99149E+07 4.56369E+05-7.12742E+06-6.52069E+06-9.91477E+05-3.58675E+05
 -1       114 1.99149E+07 7.12742E+06-4.56369E+05 3.58675E+05 9.91477E+05 6.52069E+06
 -1       115-1.67813E-06 1.14127E-05 6.40354E-06 9.32405E-06 1.29240E+06 4.49503E+06
 -1       116 7.41752E-06 5.10549E+06-5.10549E+06-4.17195E+07-1.77407E-05 4.17195E+07
 -1       117-1.16350E-04-2.28368E-04-7.19642E-05-2.59708E-06 2.22285E+06 1.60933E+08
 -1       118-1.16788E+07-3.89937E+05-4.01638E+06-1.99214E+08-4.34993E+05 1.35064E+07
 -1       119 1.16788E+07 4.01638E+06 3.89937E+05-1.35064E+07 4.34993E+05 1.99214E+08
 -1       120 6.75913E-05 1.93350E-04 1.28697E-04-1.39431E-06 6.15430E+05 1.28186E+08
 -1       121 3.32896E-05-5.38771E+06 5.38771E+06 1.73613E+06 1.02349E-04 1.73613E+06
 -1       122 1.30997E-05-2.60015E+06 2.60015E+06 8.46305E+07-4.85921E-05 8.46305E+07
 -1       123-1.99149E+07-7.12742E+06 4.56369E+05-3.58675E+05 9.91477E+05 6.52069E+06
 -1       124 1.99149E+07-4.56369E+05 7.12742E+06 6.52069E+06-9.91477E+05-3.58675E+05
 -1       125 9.73466E-05-5.10549E+06 5.10549E+06 4.17195E+07-2.40407E-05 4.17195E+07
 -1       126-1.16788E+07-4.01638E+06-3.89937E+05 1.35064E+07 4.34993E+05 1.99214E+08
 -1       127 1.16788E+07 3.89937E+05 4.01638E+06 1.99214E+08-4.34993E+05 1.35064E+07
 -1       128-6.59736E-05-1.29496E+06 1.29496E+06-9.91293E+07-1.40115E-05 9.91293E+07
 -1       129 4.75860E-05 1.56278E-04 6.85640E-05-1.70116E-07-5.65742E+05 3.62553E+08
 -1       130-5.95650E-05 7.91055E+05-7.91055E+05-9.41444E+07-5.12188E-06 9.41444E+07
 -1       131-5.80878E-05-6.28313E-05-6.51600E-06-5.54891E-06 3.11558E+05 3.40634E+08
 -1       132 6.36048E+06 7.46004E+05 2.60100E+06-2.30889E+08 2.57974E+05 1.63808E+07
 -1       133-6.36048E+06-2.60100E+06-7.46004E+05-1.63808E+07-2.57974E+05 2.30889E+08
 -1       134-1.16210E-05 2.02517E-05 1.44758E-05 1.25287E-06-3.07767E+05 1.48321E+08
 -1       135-1.04535E-04 1.29496E+06-1.29496E+06 9.91293E+07 4.25213E-05 9.91293E+07
 -1       136-3.02049E-05-7.91055E+05 7.91055E+05 9.41444E+07-2.07029E-05 9.41444E+07
 -1       137 6.36048E+06 2.60100E+06 7.46004E+05 1.63808E+07-2.57974E+05 2.30889E+08
 -1       138-6.36048E+06-7.46004E+05-2.60100E+06 2.30889E+08 2.57974E+05 1.63808E+07
 -1       139 1.66483E-05-4.42709E+06 4.42709E+06-2.28346E+07 2.29587E-05 2.28346E+07
 -1       140 8.49832E-07-4.44341E-05-7.98283E-06 1.44140E-06-1.58683E+06 1.19680E+08
 -1       141-1.00474E-05-3.89662E+06 3.89662E+06-6.25272E+07-7.36531E-07 6.25272E+07
 -1       142 1.39060E-05 2.63071E-05 1.03582E-05-2.33219E-06-1.59402E+06 2.43085E+08
 -1       143 2.28575E+07 5.15101E+05 6.43362E+06-7.12543E+07 5.51418E+05-8.15335E+05
 -1       144-2.28575E+07-6.43362E+06-5.15101E+05 8.15335E+05-5.51418E+05 7.12543E+07
 -1       145 1.25121E-05 1.22944E-05 1.60332E-05-2.73488E-06-1.03541E+06 4.75808E+07
 -1       146 2.74618E-05 4.42709E+06-4.42709E+06 2.28346E+07-1.44000E-05 2.28346E+07
 -1       147-3.55982E-05 3.89662E+06-3.89662E+06 6.25272E+07 1.58070E-05 6.25272E+07
 -1       148 2.28575E+07 6.43362E+06 5.15101E+05-8.15335E+05-5.51418E+05 7.12543E+07
 -1       149-2.28575E+07-5.15101E+05-6.43362E+06 7.12543E+07 5.51418E+05-8.15335E+05
 -1       150-1.86372E-05-1.40596E+06 1.40596E+06 3.82315E+07-2.62857E-06-3.82315E+07
 -1       151 1.56870E-07 3.67997E-05 1.04191E-05 7.59261E-07-7.16862E+05-2.81538E+08
 -1       152-1.52320E-05-8.66404E+06 8.66404E+06 8.13547E+06 2.84537E-06-8.13547E+06
 -1       153-1.27256E-05-2.05077E-05-1.91797E-05 5.07373E-06-4.02550E+06-8.20011E+07
 -1       154 5.02053E+06 6.65328E+05 2.79750E+06 1.59920E+08 3.72635E+05 1.18651E+07
 -1       155-5.02053E+06-2.79750E+06-6.65328E+05-1.18651E+07-3.72635E+05-1.59920E+08
 -1       156 1.45548E-07-2.29813E-06-6.13043E-07-1.74041E-08-3.44227E+05-1.09955E+08
 -1       157-9.63434E-06 1.40596E+06-1.40596E+06-3.82315E+07 4.65843E-07-3.82315E+07
 -1       158 2.07619E-06 8.66404E+06-8.66404E+06-8.13547E+06 7.21076E-07-8.13547E+06
 -1       159 5.02053E+06 2.79750E+06 6.65328E+05 1.18651E+07-3.72635E+05-1.59920E+08
 -1       160-5.02053E+06-6.65328E+05-2.79750E+06-1.59920E+08 3.72635E+05 1.18651E+07
 -1       161 6.70390E-05-6.07866E+01 6.07866E+01 2.06580E+08 4.32512E-07-2.06580E+08
 -1       162 5.74561E-05 2.44175E-05 2.43761E-05 1.45864E-05 1.28331E+01-2.10155E+08
 -1       163 1.22098E-05 6.76896E+06-6.76896E+06 1.24306E+08-5.15120E-06-1.24306E+08
 -1       164 1.90944E-05 1.34995E-05-1.16229E-06 1.03004E-06 3.37749E+06-2.47650E+08
 -1       165-2.70167E+07-1.15785E+07-1.15787E+07 2.08372E+08-6.36636E+00-1.03307E+08
 -1       166 2.70167E+07 1.15787E+07 1.15785E+07 1.03307E+08 6.36636E+00-2.08372E+08
 -1       167 4.14539E-05 1.75028E-05 1.77887E-05 1.37025E-05 6.46274E+00-1.05077E+08
 -1       168 4.19533E-05 6.07866E+01-6.07866E+01-2.06580E+08 3.52089E-07-2.06580E+08
 -1       169 4.76238E-06-6.76896E+06 6.76896E+06-1.24306E+08 3.14993E-06-1.24306E+08
 -1       170-2.70167E+07-1.15787E+07-1.15785E+07-1.03307E+08 6.36636E+00-2.08372E+08
 -1       171 2.70167E+07 1.15785E+07 1.15787E+07-2.08372E+08-6.36636E+00-1.03307E+08
 -3
    1PSTEP                        19           1           1          
    1PGM                1.000000E+00                                  
    1PGK                2.543329E+06                                  
    1PHID                         -1                                  
    1PSUBC                         0                                  
    1PMODE                        10                                  
  100CL  110 2.53817E+02         171                     2   10MODAL      1
 -4  DISP        4    1
 -5  D1          1    2    1    0
 -5  D2          1    2    2    0
 -5  D3          1    2    3    0
 -5  ALL         1    2    0    0    1ALL
 -1         1 3.77938E-03-6.70595E-03 2.56842E-04
 -1         2 1.09259E-04-6.64935E-03 1.99710E-04
 -1         3 3.20924E-17-6.68864E-03 1.98145E-04
 -1         4 3.68816E-03-6.74148E-03 1.96981E-04
 -1         5 6.60164E-04 4.42255E-03 2.56209E-04
 -1         6 1.91428E-05 4.62691E-03-1.25608E-04
 -1         7 1.62901E-17 4.43934E-03-1.31512E-04
 -1         8 6.46190E-04 4.24004E-03-1.37068E-04
 -1         9 1.87600E-03-6.67441E-03 2.25046E-04
 -1        10 5.29183E-05-6.67184E-03 1.98865E-04
 -1        11 1.78632E-03-6.71294E-03 1.97647E-04
 -1        12 3.74480E-03-6.72837E-03 2.28170E-04
 -1        13 2.77572E-03 4.04503E-04 2.19957E-04
 -1        14 8.04957E-05 5.11743E-04-8.69066E-06
 -1        15 3.24719E-17 3.97422E-04-1.17733E-05
 -1        16 2.71723E-03 2.93364E-04-1.51599E-05
 -1        17 3.32552E-04 4.58387E-03 6.44009E-05
 -1        18 9.39875E-06 4.47600E-03-1.30351E-04
 -1        19 3.17267E-04 4.40015E-03-1.32598E-04
 -1        20 6.55376E-04 4.27184E-03 5.74929E-05
 -1        21-1.09259E-04-6.64935E-03 1.99710E-04
 -1        22 3.56191E-03-6.70250E-03 1.40372E-04
 -1        23-1.91428E-05 4.62691E-03-1.25608E-04
 -1        24 6.22175E-04 4.44552E-03-5.18918E-04
 -1        25-5.29183E-05-6.67184E-03 1.98865E-04
 -1        26 1.65723E-03-6.67260E-03 1.73553E-04
 -1        27 3.64013E-03-6.72684E-03 1.67224E-04
 -1        28-8.04957E-05 5.11743E-04-8.69066E-06
 -1        29 2.61599E-03 4.18257E-04-2.44331E-04
 -1        30-9.39875E-06 4.47600E-03-1.30351E-04
 -1        31 2.94272E-04 4.59533E-03-3.17836E-04
 -1        32 6.36807E-04 4.28317E-03-3.29419E-04
 -1        33-2.15804E-03-2.27352E-03-8.44261E-05
 -1        34-6.33405E-05-2.34750E-03 6.52207E-05
 -1        35-1.73472E-17-2.27650E-03 6.74393E-05
 -1        36-2.13814E-03-2.20161E-03 6.95428E-05
 -1        37-1.56041E-03 2.78734E-03 1.45845E-04
 -1        38-4.58950E-05 2.88799E-03-7.93973E-05
 -1        39 2.16840E-18 2.77934E-03-8.23354E-05
 -1        40-1.54924E-03 2.68016E-03-8.55543E-05
 -1        41-9.82896E-04-2.33727E-03-8.09868E-06
 -1        42-2.85195E-05-2.28679E-03 6.71444E-05
 -1        43-9.62712E-04-2.26654E-03 6.77442E-05
 -1        44-2.17262E-03-2.21047E-03-6.42934E-06
 -1        45 6.33405E-05-2.34750E-03 6.52207E-05
 -1        46-2.03386E-03-2.28252E-03 2.19395E-04
 -1        47 4.58950E-05 2.88799E-03-7.93973E-05
 -1        48-1.47062E-03 2.80089E-03-3.11392E-04
 -1        49 2.85195E-05-2.28679E-03 6.71444E-05
 -1        50-8.55785E-04-2.34176E-03 1.39195E-04
 -1        51-2.11815E-03-2.21483E-03 1.45042E-04
 -1        52 2.22959E-03-2.26460E-03-9.88424E-05
 -1        53 6.51483E-05-2.34664E-03 6.47440E-05
 -1        54-3.91397E-17-2.26717E-03 6.71628E-05
 -1        55 2.19916E-03-2.18552E-03 6.95173E-05
 -1        56 9.60923E-06-5.02153E-03-2.11663E-04
 -1        57 2.43311E-07-5.17615E-03 1.43738E-04
 -1        58-3.30682E-17-5.00583E-03 1.48293E-04
 -1        59 8.21328E-06-4.85207E-03 1.53339E-04
 -1        60 1.01587E-03-2.32990E-03-1.71585E-05
 -1        61 2.93282E-05-2.28341E-03 6.66929E-05
 -1        62 9.90011E-04-2.25130E-03 6.76441E-05
 -1        63 2.23966E-03-2.20098E-03-1.37785E-05
 -1        64-6.51483E-05-2.34664E-03 6.47440E-05
 -1        65 2.10130E-03-2.27444E-03 2.33308E-04
 -1        66-2.43311E-07-5.17615E-03 1.43738E-04
 -1        67 9.05628E-06-5.04290E-03 5.09813E-04
 -1        68-2.93282E-05-2.28341E-03 6.66929E-05
 -1        69 8.84846E-04-2.33481E-03 1.47708E-04
 -1        70 2.18335E-03-2.20587E-03 1.51966E-04
 -1        71-2.45457E-05 5.34568E-03 1.93192E-04
 -1        72-1.62661E-06 5.53728E-03-1.53716E-04
 -1        73-2.60209E-17 5.37755E-03-1.59305E-04
 -1        74-5.49082E-05 5.18887E-03-1.64037E-04
 -1        75 1.82545E-03 3.03533E-03 9.70242E-05
 -1        76 5.36354E-05 3.10205E-03-8.72671E-05
 -1        77-3.70797E-17 3.01448E-03-8.93013E-05
 -1        78 1.81053E-03 2.94581E-03-9.18957E-05
 -1        79 5.30500E-05 5.47922E-03 1.89901E-05
 -1        80 8.76084E-07 5.42133E-03-1.57662E-04
 -1        81 2.95733E-05 5.32209E-03-1.60602E-04
 -1        82-5.05340E-05 5.22961E-03 1.31643E-05
 -1        83 1.62661E-06 5.53728E-03-1.53716E-04
 -1        84-2.31332E-05 5.36653E-03-5.10532E-04
 -1        85-5.36354E-05 3.10205E-03-8.72671E-05
 -1        86 1.72041E-03 3.04642E-03-2.77191E-04
 -1        87-8.76084E-07 5.42133E-03-1.57662E-04
 -1        88 5.61398E-05 5.48962E-03-3.29141E-04
 -1        89-5.37687E-05 5.23992E-03-3.38107E-04
 -1        90 0.00000E+00 0.00000E+00 0.00000E+00
 -1        91 0.00000E+00 0.00000E+00 0.00000E+00
 -1        92 0.00000E+00 0.00000E+00 0.00000E+00
 -1        93 0.00000E+00 0.00000E+00 0.00000E+00
 -1        94-1.06719E-03 3.04419E-03-1.30534E-04
 -1        95-3.14202E-05 3.02753E-03-9.05512E-05
 -1        96-1.16823E-17 3.03890E-03-9.00248E-05
 -1        97-1.06063E-03 3.05667E-03-8.96881E-05
 -1        98 0.00000E+00 0.00000E+00 0.00000E+00
 -1        99 0.00000E+00 0.00000E+00 0.00000E+00
 -1       100 0.00000E+00 0.00000E+00 0.00000E+00
 -1       101 0.00000E+00 0.00000E+00 0.00000E+00
 -1       102 0.00000E+00 0.00000E+00 0.00000E+00
 -1       103 0.00000E+00 0.00000E+00 0.00000E+00
 -1       104 3.14202E-05 3.02753E-03-9.05512E-05
 -1       105-1.00578E-03 3.04180E-03-4.97584E-05
 -1       106 0.00000E+00 0.00000E+00 0.00000E+00
 -1       107 0.00000E+00 0.00000E+00 0.00000E+00
 -1       108 0.00000E+00 0.00000E+00 0.00000E+00
 -1       109-3.56191E-03-6.70250E-03 1.40372E-04
 -1       110-3.68816E-03-6.74148E-03 1.96981E-04
 -1       111-6.22175E-04 4.44552E-03-5.18918E-04
 -1       112-6.46190E-04 4.24004E-03-1.37068E-04
 -1       113-1.65723E-03-6.67260E-03 1.73553E-04
 -1       114-3.64013E-03-6.72684E-03 1.67224E-04
 -1       115-1.78632E-03-6.71294E-03 1.97647E-04
 -1       116-2.61599E-03 4.18257E-04-2.44331E-04
 -1       117-2.71723E-03 2.93364E-04-1.51599E-05
 -1       118-2.94272E-04 4.59533E-03-3.17836E-04
 -1       119-6.36807E-04 4.28317E-03-3.29419E-04
 -1       120-3.17267E-04 4.40015E-03-1.32598E-04
 -1       121-3.77938E-03-6.70595E-03 2.56842E-04
 -1       122-6.60164E-04 4.42255E-03 2.56209E-04
 -1       123-3.74480E-03-6.72837E-03 2.28170E-04
 -1       124-1.87600E-03-6.67441E-03 2.25046E-04
 -1       125-2.77572E-03 4.04503E-04 2.19957E-04
 -1       126-6.55376E-04 4.27184E-03 5.74929E-05
 -1       127-3.32552E-04 4.58387E-03 6.44009E-05
 -1       128 2.03386E-03-2.28252E-03 2.19395E-04
 -1       129 2.13814E-03-2.20161E-03 6.95428E-05
 -1       130 1.47062E-03 2.80089E-03-3.11392E-04
 -1       131 1.54924E-03 2.68016E-03-8.55543E-05
 -1       132 8.55785E-04-2.34176E-03 1.39195E-04
 -1       133 2.11815E-03-2.21483E-03 1.45042E-04
 -1       134 9.62712E-04-2.26654E-03 6.77442E-05
 -1       135 2.15804E-03-2.27352E-03-8.44261E-05
 -1       136 1.56041E-03 2.78734E-03 1.45845E-04
 -1       137 2.17262E-03-2.21047E-03-6.42934E-06
 -1       138 9.82896E-04-2.33727E-03-8.09868E-06
 -1       139-2.10130E-03-2.27444E-03 2.33308E-04
 -1       140-2.19916E-03-2.18552E-03 6.95173E-05
 -1       141-9.05628E-06-5.04290E-03 5.09813E-04
 -1       142-8.21328E-06-4.85207E-03 1.53339E-04
 -1       143-8.84846E-04-2.33481E-03 1.47708E-04
 -1       144-2.18335E-03-2.20587E-03 1.51966E-04
 -1       145-9.90011E-04-2.25130E-03 6.76441E-05
 -1       146-2.22959E-03-2.26460E-03-9.88424E-05
 -1       147-9.60923E-06-5.02153E-03-2.11663E-04
 -1       148-2.23966E-03-2.20098E-03-1.37785E-05
 -1       149-1.01587E-03-2.32990E-03-1.71585E-05
 -1       150 2.31332E-05 5.36653E-03-5.10532E-04
 -1       151 5.49082E-05 5.18887E-03-1.64037E-04
 -1       152-1.72041E-03 3.04642E-03-2.77191E-04
 -1       153-1.81053E-03 2.94581E-03-9.18957E-05
 -1       154-5.61398E-05 5.48962E-03-3.29141E-04
 -1       155 5.37687E-05 5.23992E-03-3.38107E-04
 -1       156-2.95733E-05 5.32209E-03-1.60602E-04
 -1       157 2.45457E-05 5.34568E-03 1.93192E-04
 -1       158-1.82545E-03 3.03533E-03 9.70242E-05
 -1       159 5.05340E-05 5.22961E-03 1.31643E-05
 -1       160-5.30500E-05 5.47922E-03 1.89901E-05
 -1       161 0.00000E+00 0.00000E+00 0.00000E+00
 -1       162 0.00000E+00 0.00000E+00 0.00000E+00
 -1       163 1.00578E-03 3.04180E-03-4.97584E-05
 -1       164 1.06063E-03 3.05667E-03-8.96881E-05
 -1       165 0.00000E+00 0.00000E+00 0.00000E+00
 -1       166 0.00000E+00 0.00000E+00 0.00000E+00
 -1       167 0.00000E+00 0.00000E+00 0.00000E+00
 -1       168 0.00000E+00 0.00000E+00 0.00000E+00
 -1       169 1.06719E-03 3.04419E-03-1.30534E-04
 -1       170 0.00000E+00 0.00000E+00 0.00000E+00
 -1       171 0.00000E+00 0.00000E+00 0.00000E+00
 -3
    1PSTEP                        20           1           1          
    1PGM                1.000000E+00                                  
    1PGK                2.543329E+06                                  
    1PHID                         -1                                  
    1PSUBC                         0                                  
    1PMODE                        10                                  
  100CL  110 2.53817E+02         171                     2   10MODAL      1
 -4  STRESS      6    1
 -5  SXX         1    4    1    1
 -5  SYY         1    4    2    2
 -5  SZZ         1    4    3    3
 -5  SXY         1    4    1    2
 -5  SYZ         1    4    2    3
 -5  SZX         1    4    3    1
 -1         1 9.18271E+07 1.54885E+06 6.08365E+06-5.92170E+07 2.44727E+06-1.59610E+06
 -1         2 2.50231E+06 4.13482E+03 2.56093E+04-1.45569E+08-9.06395E+05 1.68749E+06
 -1         3 4.13507E-07 5.04684E-06 8.28411E-07-1.30295E+08-4.65638E-06 3.85988E+06
 -1         4 8.44685E+07 8.64474E+05 1.39576E+05-5.69634E+07-2.68512E+04 4.31237E+06
 -1         5 5.73365E+08-1.02552E+06 1.10678E+07 4.93204E+06-5.37164E+06-1.65823E+06
 -1         6 1.67546E+07 4.27580E+05-7.26082E+04-5.83381E+06-6.02141E+06-1.98649E+05
 -1         7-2.24914E-07-9.33744E-06-3.34647E-06-2.54873E+06 2.30013E-06 7.55040E+04
 -1         8 5.65572E+08-2.45098E+06 1.44335E+07 6.70566E+06-1.78379E+05 1.72821E+05
 -1         9 3.48829E+07-1.32288E+07-3.50901E+06-1.04468E+08 5.55499E+05 1.58123E+06
 -1        10 9.15731E+05-1.84598E+05-4.06840E+05-1.33838E+08-2.39328E+06 2.84028E+06
 -1        11 3.09116E+07-1.37334E+07-6.23135E+06-9.58773E+07-7.08989E+04 3.96485E+06
 -1        12 8.87886E+07 5.95859E+05 2.86916E+06-5.40262E+07 1.05401E+04-1.18636E+06
 -1        13 3.11731E+08 3.99985E+05-1.06571E+06 9.83524E+06-3.76923E+05-4.90260E+06
 -1        14 8.96319E+06-1.03814E+05-5.82736E+04-4.23044E+07-2.17926E+06-4.51255E+05
 -1        15 1.05239E-06-2.20211E-06 5.69271E-07-2.95294E+07-5.27769E-07 8.74783E+05
 -1        16 3.02564E+08-1.96710E+06-3.50438E+06 1.52327E+07-6.45586E+04 1.25323E+06
 -1        17 2.87501E+08 6.38799E+06 6.27016E+06 1.37809E+05-5.39217E+06-8.23602E+05
 -1        18 8.21394E+06 2.61433E+05 1.80922E+05-4.35847E+06 8.67876E+04-7.84739E+04
 -1        19 2.77272E+08 6.10726E+06 8.82501E+06 2.64898E+06 2.57101E+03 1.29116E+05
 -1        20 5.71485E+08-1.81981E+06 1.35860E+07 5.57448E+06 5.76615E+05-1.09399E+06
 -1        21-2.50231E+06-4.13482E+03-2.56093E+04-1.45569E+08 9.06395E+05 1.68749E+06
 -1        22 8.65431E+07 1.19081E+06 6.00249E+06-5.94156E+07-2.30645E+06 5.11049E+06
 -1        23-1.67546E+07-4.27580E+05 7.26082E+04-5.83381E+06 6.02141E+06-1.98649E+05
 -1        24 5.40371E+08-1.68365E+06 1.11480E+07 4.84237E+06 5.06253E+06 1.36867E+06
 -1        25-9.15731E+05 1.84598E+05 4.06840E+05-1.33838E+08 2.39328E+06 2.84028E+06
 -1        26 2.96789E+07-1.34222E+07-3.55051E+06-1.04722E+08-5.55849E+05 1.61976E+06
 -1        27 8.68760E+07 8.04991E+05 3.65867E+06-5.40274E+07 2.23827E+04 7.38342E+06
 -1        28-8.96319E+06 1.03814E+05 5.82736E+04-4.23044E+07 2.17926E+06-4.51255E+05
 -1        29 2.93793E+08 4.63884E+05-1.09130E+06 9.56179E+06 3.55234E+05 4.32798E+06
 -1        30-8.21394E+06-2.61433E+05-1.80922E+05-4.35847E+06-8.67876E+04-7.84739E+04
 -1        31 2.54117E+08 5.59356E+06 6.38909E+06 7.31773E+04 5.43584E+06 4.94481E+05
 -1        32 5.55440E+08-2.19483E+06 1.32310E+07 5.53543E+06-8.97386E+05 1.08774E+06
 -1        33-2.38821E+08-1.93935E+06-9.02080E+06 7.11766E+07 3.78603E+06 8.64094E+06
 -1        34-7.02905E+06-3.23622E+05-1.52586E+04 2.42917E+08 4.48824E+06-1.82001E+06
 -1        35 5.97723E-06 3.39560E-06 2.26637E-06 2.06393E+08 8.85921E-07-6.11422E+06
 -1        36-2.37274E+08-5.15074E+05-1.09243E+07 6.14366E+07 1.32960E+05-7.19622E+06
 -1        37 2.87321E+08 1.96379E+07-1.32661E+06-1.25959E+07 8.01848E+06 7.94975E+06
 -1        38 8.41350E+06-1.35309E+04 5.63391E+05 7.24655E+07 8.52846E+06 6.37490E+05
 -1        39 1.78488E-06-3.54182E-06-1.74250E-06 5.08910E+07 1.66707E-06-1.50760E+06
 -1        40 2.84008E+08 1.90180E+07-4.56752E+05-2.15193E+07 2.52648E+05-2.14673E+06
 -1        41-1.19405E+08-8.16789E+06-6.47265E+06 1.58492E+08 3.95135E+06 9.70999E+04
 -1        42-3.44341E+06-2.29873E+05-2.14494E+05 2.18749E+08-1.75074E+04-4.01587E+06
 -1        43-1.16236E+08-7.24051E+06-7.75966E+06 1.35561E+08-5.18643E+02-6.48024E+06
 -1        44-2.39299E+08-1.01008E+06-1.05044E+07 6.04453E+07-4.88645E+05 6.13951E+06
 -1        45 7.02905E+06 3.23622E+05 1.52586E+04 2.42917E+08-4.48824E+06-1.82001E+06
 -1        46-2.25078E+08-1.40782E+06-8.92164E+06 7.18141E+07-3.56817E+06-1.28769E+07
 -1        47-8.41350E+06 1.35309E+04-5.63391E+05 7.24655E+07-8.52846E+06 6.37490E+05
 -1        48 2.70788E+08 1.97510E+07-2.49348E+06-1.21466E+07-7.55707E+06-7.21678E+06
 -1        49 3.44341E+06 2.29873E+05 2.14494E+05 2.18749E+08 1.75074E+04-4.01587E+06
 -1        50-1.05424E+08-7.55932E+06-6.42412E+06 1.59135E+08-3.98727E+06-3.68170E+06
 -1        51-2.32639E+08-6.28022E+05-1.00385E+07 6.05573E+07 7.23820E+05-1.55489E+07
 -1        52-2.64271E+08-1.18484E+07-1.40776E+07-5.93205E+07 1.88301E+06-7.53159E+06
 -1        53-7.84934E+06-5.01035E+05-3.54458E+05-2.33463E+08 1.50622E+06 1.53898E+06
 -1        54 3.75323E-07 5.41331E-07-7.69971E-07-1.98849E+08-1.81381E-06 5.89072E+06
 -1        55-2.64964E+08-1.19652E+07-1.69131E+07-5.19502E+07 4.46204E+04 6.91614E+06
 -1        56-4.46310E+08-2.98047E+07 4.68707E+06 2.23746E+06-1.32925E+07 5.71190E+05
 -1        57-1.30677E+07 9.75502E+04-8.25827E+05 2.55566E+05-1.34127E+07-4.83925E+04
 -1        58 2.92249E-06 1.35228E-06 7.72066E-07-8.39971E+04 8.80100E-08 2.48834E+03
 -1        59-4.41116E+08-2.78768E+07 3.29293E+06 1.63355E+06-3.97340E+05-7.57094E+03
 -1        60-1.34352E+08-9.90555E+06-8.05664E+06-1.47445E+08 1.56085E+06 4.20460E+05
 -1        61-3.89274E+06-2.80206E+05-2.84332E+05-2.10487E+08-3.36465E+05 3.75275E+06
 -1        62-1.31404E+08-9.59799E+06-9.45871E+06-1.26679E+08-9.96749E+03 6.23551E+06
 -1        63-2.65480E+08-1.20575E+07-1.59162E+07-5.00042E+07 3.46650E+04-6.65234E+06
 -1        64 7.84934E+06 5.01035E+05 3.54458E+05-2.33463E+08-1.50622E+06 1.53898E+06
 -1        65-2.49064E+08-1.10344E+07-1.33997E+07-5.98713E+07-1.77465E+06 1.10625E+07
 -1        66 1.30677E+07-9.75502E+04 8.25827E+05 2.55566E+05 1.34127E+07-4.83925E+04
 -1        67-4.20628E+08-3.01350E+07 6.46274E+06 2.27526E+06 1.25276E+07-7.04876E+05
 -1        68 3.89274E+06 2.80206E+05 2.84332E+05-2.10487E+08 3.36465E+05 3.75275E+06
 -1        69-1.18845E+08-8.97912E+06-7.35578E+06-1.48099E+08-1.56153E+06 2.54406E+06
 -1        70-2.57979E+08-1.16009E+07-1.53568E+07-5.00671E+07 5.78329E+04 1.54076E+07
 -1        71 4.65933E+08 1.27004E+06-4.99189E+06-1.35808E+06 6.52792E+06 8.08373E+06
 -1        72 1.37640E+07-1.22725E+04 4.65229E+04 8.81240E+07 6.20684E+06 2.97450E+05
 -1        73-1.61026E-06 5.79003E-06-4.44241E-07 6.83665E+07-1.34809E-06-2.02530E+06
 -1        74 4.64621E+08 1.57044E+06-4.14273E+05-1.00408E+07 1.83872E+05-2.61060E+06
 -1        75 2.37998E+08 3.57863E+07 6.14225E+06-6.64098E+03 1.06631E+07-9.07516E+06
 -1        76 7.05191E+06 2.12088E+05 1.03544E+06-5.07325E+07 1.10518E+07-3.28172E+05
 -1        77-2.14949E-06-5.96978E-07-1.87568E-06-3.16538E+07 3.36207E-07 9.37717E+05
 -1        78 2.38046E+08 3.49526E+07 7.15929E+06 1.10778E+07 3.27400E+05 1.50291E+06
 -1        79 2.27926E+08-1.08985E+07-8.78224E+06 4.28726E+07 6.50782E+06 2.78704E+06
 -1        80 6.56312E+06-1.83265E+05-3.21852E+05 7.67333E+07 1.87187E+06-8.49765E+05
 -1        81 2.21546E+08-1.08645E+07-6.18633E+06 2.86849E+07 5.54525E+04-2.27316E+06
 -1        82 4.66514E+08 1.19263E+06-2.58149E+06-7.15690E+06 2.05698E+06 4.29513E+06
 -1        83-1.37640E+07 1.22725E+04-4.65229E+04 8.81240E+07-6.20684E+06 2.97450E+05
 -1        84 4.39121E+08 1.56829E+06-5.07598E+06-8.81102E+05-6.15228E+06-8.01740E+06
 -1        85-7.05191E+06-2.12088E+05-1.03544E+06-5.07325E+07-1.10518E+07-3.28172E+05
 -1        86 2.24303E+08 3.54849E+07 4.03090E+06-5.44813E+05-1.00495E+07 9.09150E+06
 -1        87-6.56312E+06 1.83265E+05 3.21852E+05 7.67333E+07-1.87187E+06-8.49765E+05
 -1        88 2.00662E+08-1.07646E+07-8.86839E+06 4.32026E+07-6.39727E+06-2.36753E+06
 -1        89 4.53817E+08 1.71551E+06-1.93974E+06-7.00420E+06-1.67468E+06-6.84503E+06
 -1        90-5.71339E+08-2.44859E+08-2.44859E+08 2.62731E+08-5.20334E+01-2.75127E+07
 -1        91-1.66997E+07-7.15698E+06-7.15698E+06 2.52798E+08-5.38880E+01-8.01869E+06
 -1        92-2.86871E-06-1.37714E-06-1.27910E-06 2.60690E+08-1.02329E-07-7.72272E+06
 -1        93-5.63719E+08-2.41593E+08-2.41593E+08 2.70681E+08-1.59638E+00-7.48891E+06
 -1        94-8.10053E+06-2.43059E+07 5.48580E+06 2.59084E+07-1.55909E+07 5.11450E+06
 -1        95-3.49052E+05 1.49598E+05-7.70908E+05 7.39834E+07-1.61403E+07-5.58567E+05
 -1        96-2.30409E-06 1.42865E-06-4.61936E-07 6.12060E+07 7.03614E-07-1.81317E+06
 -1        97-1.17827E+07-2.60230E+07 5.04988E+06 1.88551E+07-4.78141E+05-2.19170E+06
 -1        98-2.85117E+08-1.22193E+08-1.22193E+08 2.59225E+08-7.77737E+01-1.77947E+07
 -1        99-8.12244E+06-3.48106E+06-3.48106E+06 2.55366E+08-2.01550E+01-7.91530E+06
 -1       100-2.74183E+08-1.17508E+08-1.17507E+08 2.67191E+08-5.97074E-01-7.56500E+06
 -1       101-5.68985E+08-2.43851E+08-2.43851E+08 2.65267E+08-1.95665E+01-1.75554E+07
 -1       102 1.66997E+07 7.15698E+06 7.15698E+06 2.52798E+08 5.38880E+01-8.01869E+06
 -1       103-5.38462E+08-2.30769E+08-2.30769E+08 2.61561E+08 4.90392E+01 1.19810E+07
 -1       104 3.49052E+05-1.49598E+05 7.70908E+05 7.39834E+07 1.61403E+07-5.58567E+05
 -1       105-7.63439E+06-2.46739E+07 6.93679E+06 2.62572E+07 1.46938E+07-6.65986E+06
 -1       106 8.12244E+06 3.48106E+06 3.48106E+06 2.55366E+08 2.01550E+01-7.91530E+06
 -1       107-2.51877E+08-1.07948E+08-1.07948E+08 2.58639E+08 7.67500E+01 2.09552E+06
 -1       108-5.53077E+08-2.37033E+08-2.37033E+08 2.64678E+08 1.49888E+01 2.21407E+06
 -1       109-8.65431E+07-1.19081E+06-6.00249E+06-5.94156E+07 2.30645E+06 5.11049E+06
 -1       110-8.44685E+07-8.64474E+05-1.39576E+05-5.69634E+07 2.68512E+04 4.31237E+06
 -1       111-5.40371E+08 1.68365E+06-1.11480E+07 4.84237E+06-5.06253E+06 1.36867E+06
 -1       112-5.65572E+08 2.45098E+06-1.44335E+07 6.70566E+06 1.78379E+05 1.72821E+05
 -1       113-2.96789E+07 1.34222E+07 3.55051E+06-1.04722E+08 5.55849E+05 1.61976E+06
 -1       114-8.68760E+07-8.04991E+05-3.65867E+06-5.40274E+07-2.23827E+04 7.38342E+06
 -1       115-3.09116E+07 1.37334E+07 6.23135E+06-9.58773E+07 7.08989E+04 3.96485E+06
 -1       116-2.93793E+08-4.63884E+05 1.09130E+06 9.56179E+06-3.55234E+05 4.32798E+06
 -1       117-3.02564E+08 1.96710E+06 3.50438E+06 1.52327E+07 6.45586E+04 1.25323E+06
 -1       118-2.54117E+08-5.59356E+06-6.38909E+06 7.31773E+04-5.43584E+06 4.94481E+05
 -1       119-5.55440E+08 2.19483E+06-1.32310E+07 5.53543E+06 8.97386E+05 1.08774E+06
 -1       120-2.77272E+08-6.10726E+06-8.82501E+06 2.64898E+06-2.57101E+03 1.29116E+05
 -1       121-9.18271E+07-1.54885E+06-6.08365E+06-5.92170E+07-2.44727E+06-1.59610E+06
 -1       122-5.73365E+08 1.02552E+06-1.10678E+07 4.93204E+06 5.37164E+06-1.65823E+06
 -1       123-8.87886E+07-5.95859E+05-2.86916E+06-5.40262E+07-1.05401E+04-1.18636E+06
 -1       124-3.48829E+07 1.32288E+07 3.50901E+06-1.04468E+08-5.55499E+05 1.58123E+06
 -1       125-3.11731E+08-3.99985E+05 1.06571E+06 9.83524E+06 3.76923E+05-4.90260E+06
 -1       126-5.71485E+08 1.81981E+06-1.35860E+07 5.57448E+06-5.76615E+05-1.09399E+06
 -1       127-2.87501E+08-6.38799E+06-6.27016E+06 1.37809E+05 5.39217E+06-8.23602E+05
 -1       128 2.25078E+08 1.40782E+06 8.92164E+06 7.18141E+07 3.56817E+06-1.28769E+07
 -1       129 2.37274E+08 5.15074E+05 1.09243E+07 6.14366E+07-1.32960E+05-7.19622E+06
 -1       130-2.70788E+08-1.97510E+07 2.49348E+06-1.21466E+07 7.55707E+06-7.21678E+06
 -1       131-2.84008E+08-1.90180E+07 4.56752E+05-2.15193E+07-2.52648E+05-2.14673E+06
 -1       132 1.05424E+08 7.55932E+06 6.42412E+06 1.59135E+08 3.98727E+06-3.68170E+06
 -1       133 2.32639E+08 6.28022E+05 1.00385E+07 6.05573E+07-7.23820E+05-1.55489E+07
 -1       134 1.16236E+08 7.24051E+06 7.75966E+06 1.35561E+08 5.18643E+02-6.48024E+06
 -1       135 2.38821E+08 1.93935E+06 9.02080E+06 7.11766E+07-3.78603E+06 8.64094E+06
 -1       136-2.87321E+08-1.96379E+07 1.32661E+06-1.25959E+07-8.01848E+06 7.94975E+06
 -1       137 2.39299E+08 1.01008E+06 1.05044E+07 6.04453E+07 4.88645E+05 6.13951E+06
 -1       138 1.19405E+08 8.16789E+06 6.47265E+06 1.58492E+08-3.95135E+06 9.70999E+04
 -1       139 2.49064E+08 1.10344E+07 1.33997E+07-5.98713E+07 1.77465E+06 1.10625E+07
 -1       140 2.64964E+08 1.19652E+07 1.69131E+07-5.19502E+07-4.46204E+04 6.91614E+06
 -1       141 4.20628E+08 3.01350E+07-6.46274E+06 2.27526E+06-1.25276E+07-7.04876E+05
 -1       142 4.41116E+08 2.78768E+07-3.29293E+06 1.63355E+06 3.97340E+05-7.57094E+03
 -1       143 1.18845E+08 8.97912E+06 7.35578E+06-1.48099E+08 1.56153E+06 2.54406E+06
 -1       144 2.57979E+08 1.16009E+07 1.53568E+07-5.00671E+07-5.78329E+04 1.54076E+07
 -1       145 1.31404E+08 9.59799E+06 9.45871E+06-1.26679E+08 9.96749E+03 6.23551E+06
 -1       146 2.64271E+08 1.18484E+07 1.40776E+07-5.93205E+07-1.88301E+06-7.53159E+06
 -1       147 4.46310E+08 2.98047E+07-4.68707E+06 2.23746E+06 1.32925E+07 5.71190E+05
 -1       148 2.65480E+08 1.20575E+07 1.59162E+07-5.00042E+07-3.46650E+04-6.65234E+06
 -1       149 1.34352E+08 9.90555E+06 8.05664E+06-1.47445E+08-1.56085E+06 4.20460E+05
 -1       150-4.39121E+08-1.56829E+06 5.07598E+06-8.81102E+05 6.15228E+06-8.01740E+06
 -1       151-4.64621E+08-1.57044E+06 4.14273E+05-1.00408E+07-1.83872E+05-2.61060E+06
 -1       152-2.24303E+08-3.54849E+07-4.03090E+06-5.44813E+05 1.00495E+07 9.09150E+06
 -1       153-2.38046E+08-3.49526E+07-7.15929E+06 1.10778E+07-3.27400E+05 1.50291E+06
 -1       154-2.00662E+08 1.07646E+07 8.86839E+06 4.32026E+07 6.39727E+06-2.36753E+06
 -1       155-4.53817E+08-1.71551E+06 1.93974E+06-7.00420E+06 1.67468E+06-6.84503E+06
 -1       156-2.21546E+08 1.08645E+07 6.18633E+06 2.86849E+07-5.54525E+04-2.27316E+06
 -1       157-4.65933E+08-1.27004E+06 4.99189E+06-1.35808E+06-6.52792E+06 8.08373E+06
 -1       158-2.37998E+08-3.57863E+07-6.14225E+06-6.64098E+03-1.06631E+07-9.07516E+06
 -1       159-4.66514E+08-1.19263E+06 2.58149E+06-7.15690E+06-2.05698E+06 4.29513E+06
 -1       160-2.27926E+08 1.08985E+07 8.78224E+06 4.28726E+07-6.50782E+06 2.78704E+06
 -1       161 5.38462E+08 2.30769E+08 2.30769E+08 2.61561E+08-4.90392E+01 1.19810E+07
 -1       162 5.63719E+08 2.41593E+08 2.41593E+08 2.70681E+08 1.59638E+00-7.48891E+06
 -1       163 7.63439E+06 2.46739E+07-6.93679E+06 2.62572E+07-1.46938E+07-6.65986E+06
 -1       164 1.17827E+07 2.60230E+07-5.04988E+06 1.88551E+07 4.78141E+05-2.19170E+06
 -1       165 2.51877E+08 1.07948E+08 1.07948E+08 2.58639E+08-7.67500E+01 2.09552E+06
 -1       166 5.53077E+08 2.37033E+08 2.37033E+08 2.64678E+08-1.49888E+01 2.21407E+06
 -1       167 2.74183E+08 1.17508E+08 1.17507E+08 2.67191E+08 5.97073E-01-7.56500E+06
 -1       168 5.71339E+08 2.44859E+08 2.44859E+08 2.62731E+08 5.20334E+01-2.75127E+07
 -1       169 8.10053E+06 2.43059E+07-5.48580E+06 2.59084E+07 1.55909E+07 5.11450E+06
 -1       170 5.68985E+08 2.43851E+08 2.43851E+08 2.65267E+08 1.95665E+01-1.75554E+07
 -1       171 2.85117E+08 1.22193E+08 1.22193E+08 2.59225E+08 7.77737E+01-1.77947E+07
 -3
    1PSTEP                        21           1           1          
    1PGM                1.000000E+00                                  
    1PGK                2.543329E+06                                  
    1PHID                         -1                                  
    1PSUBC                         0                                  
    1PMODE                        11                                  
  100CL  111 2.53817E+02         171                     2   11MODAL      1
 -4  DISP        4    1
 -5  D1          1    2    1    0
 -5  D2          1    2    2    0
 -5  D3          1    2    3    0
 -5  ALL         1    2    0    0    1ALL
 -1         1-3.56191E-03-1.40372E-04-6.70250E-03
 -1         2-3.68816E-03-1.96981E-04-6.74148E-03
 -1         3 9.23740E-17-1.98145E-04-6.68864E-03
 -1         4 1.09259E-04-1.99710E-04-6.64935E-03
 -1         5-6.22175E-04 5.18918E-04 4.44552E-03
 -1         6-6.46190E-04 1.37068E-04 4.24004E-03
 -1         7 6.54316E-17 1.31512E-04 4.43934E-03
 -1         8 1.91428E-05 1.25608E-04 4.62691E-03
 -1         9-3.64013E-03-1.67224E-04-6.72684E-03
 -1        10-1.78632E-03-1.97647E-04-6.71294E-03
 -1        11 5.29183E-05-1.98865E-04-6.67184E-03
 -1        12-1.65723E-03-1.73553E-04-6.67260E-03
 -1        13-2.61599E-03 2.44331E-04 4.18257E-04
 -1        14-2.71723E-03 1.51599E-05 2.93364E-04
 -1        15 8.80372E-17 1.17733E-05 3.97422E-04
 -1        16 8.04957E-05 8.69066E-06 5.11743E-04
 -1        17-6.36807E-04 3.29419E-04 4.28317E-03
 -1        18-3.17267E-04 1.32598E-04 4.40015E-03
 -1        19 9.39875E-06 1.30351E-04 4.47600E-03
 -1        20-2.94272E-04 3.17836E-04 4.59533E-03
 -1        21 3.68816E-03-1.96981E-04-6.74148E-03
 -1        22 3.77938E-03-2.56842E-04-6.70595E-03
 -1        23 6.46190E-04 1.37068E-04 4.24004E-03
 -1        24 6.60164E-04-2.56209E-04 4.42255E-03
 -1        25 1.78632E-03-1.97647E-04-6.71294E-03
 -1        26 3.74480E-03-2.28170E-04-6.72837E-03
 -1        27 1.87600E-03-2.25046E-04-6.67441E-03
 -1        28 2.71723E-03 1.51599E-05 2.93364E-04
 -1        29 2.77572E-03-2.19957E-04 4.04503E-04
 -1        30 3.17267E-04 1.32598E-04 4.40015E-03
 -1        31 6.55376E-04-5.74929E-05 4.27184E-03
 -1        32 3.32552E-04-6.44009E-05 4.58387E-03
 -1        33 2.03386E-03-2.19395E-04-2.28252E-03
 -1        34 2.13814E-03-6.95428E-05-2.20161E-03
 -1        35-1.65883E-17-6.74393E-05-2.27650E-03
 -1        36-6.33405E-05-6.52207E-05-2.34750E-03
 -1        37 1.47062E-03 3.11392E-04 2.80089E-03
 -1        38 1.54924E-03 8.55543E-05 2.68016E-03
 -1        39 2.92735E-17 8.23354E-05 2.77934E-03
 -1        40-4.58950E-05 7.93973E-05 2.88799E-03
 -1        41 2.11815E-03-1.45042E-04-2.21483E-03
 -1        42 9.62712E-04-6.77442E-05-2.26654E-03
 -1        43-2.85195E-05-6.71444E-05-2.28679E-03
 -1        44 8.55785E-04-1.39195E-04-2.34176E-03
 -1        45-2.13814E-03-6.95428E-05-2.20161E-03
 -1        46-2.15804E-03 8.44261E-05-2.27352E-03
 -1        47-1.54924E-03 8.55543E-05 2.68016E-03
 -1        48-1.56041E-03-1.45845E-04 2.78734E-03
 -1        49-9.62712E-04-6.77442E-05-2.26654E-03
 -1        50-2.17262E-03 6.42934E-06-2.21047E-03
 -1        51-9.82896E-04 8.09868E-06-2.33727E-03
 -1        52-2.10130E-03-2.33308E-04-2.27444E-03
 -1        53-2.19916E-03-6.95173E-05-2.18552E-03
 -1        54-7.56773E-17-6.71628E-05-2.26717E-03
 -1        55 6.51483E-05-6.47440E-05-2.34664E-03
 -1        56-9.05628E-06-5.09813E-04-5.04290E-03
 -1        57-8.21328E-06-1.53339E-04-4.85207E-03
 -1        58-5.43185E-17-1.48293E-04-5.00583E-03
 -1        59 2.43311E-07-1.43738E-04-5.17615E-03
 -1        60-2.18335E-03-1.51966E-04-2.20587E-03
 -1        61-9.90011E-04-6.76441E-05-2.25130E-03
 -1        62 2.93282E-05-6.66929E-05-2.28341E-03
 -1        63-8.84846E-04-1.47708E-04-2.33481E-03
 -1        64 2.19916E-03-6.95173E-05-2.18552E-03
 -1        65 2.22959E-03 9.88424E-05-2.26460E-03
 -1        66 8.21328E-06-1.53339E-04-4.85207E-03
 -1        67 9.60923E-06 2.11663E-04-5.02153E-03
 -1        68 9.90011E-04-6.76441E-05-2.25130E-03
 -1        69 2.23966E-03 1.37785E-05-2.20098E-03
 -1        70 1.01587E-03 1.71585E-05-2.32990E-03
 -1        71 2.31332E-05 5.10532E-04 5.36653E-03
 -1        72 5.49082E-05 1.64037E-04 5.18887E-03
 -1        73-5.67580E-17 1.59305E-04 5.37755E-03
 -1        74-1.62661E-06 1.53716E-04 5.53728E-03
 -1        75-1.72041E-03 2.77191E-04 3.04642E-03
 -1        76-1.81053E-03 9.18957E-05 2.94581E-03
 -1        77-7.67615E-17 8.93013E-05 3.01448E-03
 -1        78 5.36354E-05 8.72671E-05 3.10205E-03
 -1        79 5.37687E-05 3.38107E-04 5.23992E-03
 -1        80-2.95733E-05 1.60602E-04 5.32209E-03
 -1        81 8.76084E-07 1.57662E-04 5.42133E-03
 -1        82-5.61398E-05 3.29141E-04 5.48962E-03
 -1        83-5.49082E-05 1.64037E-04 5.18887E-03
 -1        84-2.45457E-05-1.93192E-04 5.34568E-03
 -1        85 1.81053E-03 9.18957E-05 2.94581E-03
 -1        86 1.82545E-03-9.70242E-05 3.03533E-03
 -1        87 2.95733E-05 1.60602E-04 5.32209E-03
 -1        88-5.05340E-05-1.31643E-05 5.22961E-03
 -1        89 5.30500E-05-1.89901E-05 5.47922E-03
 -1        90 0.00000E+00 0.00000E+00 0.00000E+00
 -1        91 0.00000E+00 0.00000E+00 0.00000E+00
 -1        92 0.00000E+00 0.00000E+00 0.00000E+00
 -1        93 0.00000E+00 0.00000E+00 0.00000E+00
 -1        94 1.00578E-03 4.97584E-05 3.04180E-03
 -1        95 1.06063E-03 8.96881E-05 3.05667E-03
 -1        96-2.68882E-17 9.00248E-05 3.03890E-03
 -1        97-3.14202E-05 9.05512E-05 3.02753E-03
 -1        98 0.00000E+00 0.00000E+00 0.00000E+00
 -1        99 0.00000E+00 0.00000E+00 0.00000E+00
 -1       100 0.00000E+00 0.00000E+00 0.00000E+00
 -1       101 0.00000E+00 0.00000E+00 0.00000E+00
 -1       102 0.00000E+00 0.00000E+00 0.00000E+00
 -1       103 0.00000E+00 0.00000E+00 0.00000E+00
 -1       104-1.06063E-03 8.96881E-05 3.05667E-03
 -1       105-1.06719E-03 1.30534E-04 3.04419E-03
 -1       106 0.00000E+00 0.00000E+00 0.00000E+00
 -1       107 0.00000E+00 0.00000E+00 0.00000E+00
 -1       108 0.00000E+00 0.00000E+00 0.00000E+00
 -1       109-3.77938E-03-2.56842E-04-6.70595E-03
 -1       110-1.09259E-04-1.99710E-04-6.64935E-03
 -1       111-6.60164E-04-2.56209E-04 4.42255E-03
 -1       112-1.91428E-05 1.25608E-04 4.62691E-03
 -1       113-3.74480E-03-2.28170E-04-6.72837E-03
 -1       114-1.87600E-03-2.25046E-04-6.67441E-03
 -1       115-5.29183E-05-1.98865E-04-6.67184E-03
 -1       116-2.77572E-03-2.19957E-04 4.04503E-04
 -1       117-8.04957E-05 8.69066E-06 5.11743E-04
 -1       118-6.55376E-04-5.74929E-05 4.27184E-03
 -1       119-3.32552E-04-6.44009E-05 4.58387E-03
 -1       120-9.39875E-06 1.30351E-04 4.47600E-03
 -1       121 3.56191E-03-1.40372E-04-6.70250E-03
 -1       122 6.22175E-04 5.18918E-04 4.44552E-03
 -1       123 1.65723E-03-1.73553E-04-6.67260E-03
 -1       124 3.64013E-03-1.67224E-04-6.72684E-03
 -1       125 2.61599E-03 2.44331E-04 4.18257E-04
 -1       126 2.94272E-04 3.17836E-04 4.59533E-03
 -1       127 6.36807E-04 3.29419E-04 4.28317E-03
 -1       128 2.15804E-03 8.44261E-05-2.27352E-03
 -1       129 6.33405E-05-6.52207E-05-2.34750E-03
 -1       130 1.56041E-03-1.45845E-04 2.78734E-03
 -1       131 4.58950E-05 7.93973E-05 2.88799E-03
 -1       132 2.17262E-03 6.42934E-06-2.21047E-03
 -1       133 9.82896E-04 8.09868E-06-2.33727E-03
 -1       134 2.85195E-05-6.71444E-05-2.28679E-03
 -1       135-2.03386E-03-2.19395E-04-2.28252E-03
 -1       136-1.47062E-03 3.11392E-04 2.80089E-03
 -1       137-8.55785E-04-1.39195E-04-2.34176E-03
 -1       138-2.11815E-03-1.45042E-04-2.21483E-03
 -1       139-2.22959E-03 9.88424E-05-2.26460E-03
 -1       140-6.51483E-05-6.47440E-05-2.34664E-03
 -1       141-9.60923E-06 2.11663E-04-5.02153E-03
 -1       142-2.43311E-07-1.43738E-04-5.17615E-03
 -1       143-2.23966E-03 1.37785E-05-2.20098E-03
 -1       144-1.01587E-03 1.71585E-05-2.32990E-03
 -1       145-2.93282E-05-6.66929E-05-2.28341E-03
 -1       146 2.10130E-03-2.33308E-04-2.27444E-03
 -1       147 9.05628E-06-5.09813E-04-5.04290E-03
 -1       148 8.84846E-04-1.47708E-04-2.33481E-03
 -1       149 2.18335E-03-1.51966E-04-2.20587E-03
 -1       150 2.45457E-05-1.93192E-04 5.34568E-03
 -1       151 1.62661E-06 1.53716E-04 5.53728E-03
 -1       152-1.82545E-03-9.70242E-05 3.03533E-03
 -1       153-5.36354E-05 8.72671E-05 3.10205E-03
 -1       154 5.05340E-05-1.31643E-05 5.22961E-03
 -1       155-5.30500E-05-1.89901E-05 5.47922E-03
 -1       156-8.76084E-07 1.57662E-04 5.42133E-03
 -1       157-2.31332E-05 5.10532E-04 5.36653E-03
 -1       158 1.72041E-03 2.77191E-04 3.04642E-03
 -1       159 5.61398E-05 3.29141E-04 5.48962E-03
 -1       160-5.37687E-05 3.38107E-04 5.23992E-03
 -1       161 0.00000E+00 0.00000E+00 0.00000E+00
 -1       162 0.00000E+00 0.00000E+00 0.00000E+00
 -1       163 1.06719E-03 1.30534E-04 3.04419E-03
 -1       164 3.14202E-05 9.05512E-05 3.02753E-03
 -1       165 0.00000E+00 0.00000E+00 0.00000E+00
 -1       166 0.00000E+00 0.00000E+00 0.00000E+00
 -1       167 0.00000E+00 0.00000E+00 0.00000E+00
 -1       168 0.00000E+00 0.00000E+00 0.00000E+00
 -1       169-1.00578E-03 4.97584E-05 3.04180E-03
 -1       170 0.00000E+00 0.00000E+00 0.00000E+00
 -1       171 0.00000E+00 0.00000E+00 0.00000E+00
 -3
    1PSTEP                        22           1           1          
    1PGM                1.000000E+00                                  
    1PGK                2.543329E+06                                  
    1PHID                         -1                                  
    1PSUBC                         0                                  
    1PMODE                        11                                  
  100CL  111 2.53817E+02         171                     2   11MODAL      1
 -4  STRESS      6    1
 -5  SXX         1    4    1    1
 -5  SYY         1    4    2    2
 -5  SZZ         1    4    3    3
 -5  SXY         1    4    1    2
 -5  SYZ         1    4    2    3
 -5  SZX         1    4    3    1
 -1         1-8.65431E+07-6.00249E+06-1.19081E+06-5.11049E+06-2.30645E+06-5.94156E+07
 -1         2-8.44685E+07-1.39576E+05-8.64474E+05-4.31237E+06-2.68512E+04-5.69634E+07
 -1         3 6.65942E-06 1.56993E-05 9.24803E-06-3.85988E+06-6.14685E-06-1.30295E+08
 -1         4 2.50231E+06 2.56093E+04 4.13482E+03-1.68749E+06 9.06395E+05-1.45569E+08
 -1         5-5.40371E+08-1.11480E+07 1.68365E+06-1.36867E+06 5.06253E+06 4.84237E+06
 -1         6-5.65572E+08-1.44335E+07 2.45098E+06-1.72821E+05-1.78379E+05 6.70566E+06
 -1         7-1.47149E-06-2.29969E-05-3.19770E-06-7.55040E+04 3.34485E-06-2.54873E+06
 -1         8 1.67546E+07-7.26082E+04 4.27580E+05 1.98649E+05 6.02141E+06-5.83381E+06
 -1         9-8.68760E+07-3.65867E+06-8.04991E+05-7.38342E+06 2.23827E+04-5.40274E+07
 -1        10-3.09116E+07 6.23135E+06 1.37334E+07-3.96485E+06-7.08989E+04-9.58773E+07
 -1        11 9.15731E+05-4.06840E+05-1.84598E+05-2.84028E+06 2.39328E+06-1.33838E+08
 -1        12-2.96789E+07 3.55051E+06 1.34222E+07-1.61976E+06-5.55849E+05-1.04722E+08
 -1        13-2.93793E+08 1.09130E+06-4.63884E+05-4.32798E+06 3.55234E+05 9.56179E+06
 -1        14-3.02564E+08 3.50438E+06 1.96710E+06-1.25323E+06-6.45586E+04 1.52327E+07
 -1        15 4.23193E-06 1.83424E-06 3.26382E-06-8.74783E+05-2.20304E-06-2.95294E+07
 -1        16 8.96319E+06-5.82736E+04-1.03814E+05 4.51255E+05 2.17926E+06-4.23044E+07
 -1        17-5.55440E+08-1.32310E+07 2.19483E+06-1.08774E+06-8.97386E+05 5.53543E+06
 -1        18-2.77272E+08-8.82501E+06-6.10726E+06-1.29116E+05 2.57101E+03 2.64898E+06
 -1        19 8.21394E+06 1.80922E+05 2.61433E+05 7.84739E+04-8.67876E+04-4.35847E+06
 -1        20-2.54117E+08-6.38909E+06-5.59356E+06-4.94481E+05 5.43584E+06 7.31773E+04
 -1        21 8.44685E+07 1.39576E+05 8.64474E+05-4.31237E+06 2.68512E+04-5.69634E+07
 -1        22 9.18271E+07 6.08365E+06 1.54885E+06 1.59610E+06-2.44727E+06-5.92170E+07
 -1        23 5.65572E+08 1.44335E+07-2.45098E+06-1.72821E+05 1.78379E+05 6.70566E+06
 -1        24 5.73365E+08 1.10678E+07-1.02552E+06 1.65823E+06 5.37164E+06 4.93204E+06
 -1        25 3.09116E+07-6.23135E+06-1.37334E+07-3.96485E+06 7.08989E+04-9.58773E+07
 -1        26 8.87886E+07 2.86916E+06 5.95859E+05 1.18636E+06-1.05401E+04-5.40262E+07
 -1        27 3.48829E+07-3.50901E+06-1.32288E+07-1.58123E+06-5.55499E+05-1.04468E+08
 -1        28 3.02564E+08-3.50438E+06-1.96710E+06-1.25323E+06 6.45586E+04 1.52327E+07
 -1        29 3.11731E+08-1.06571E+06 3.99985E+05 4.90260E+06 3.76923E+05 9.83524E+06
 -1        30 2.77272E+08 8.82501E+06 6.10726E+06-1.29116E+05-2.57101E+03 2.64898E+06
 -1        31 5.71485E+08 1.35860E+07-1.81981E+06 1.09399E+06-5.76615E+05 5.57448E+06
 -1        32 2.87501E+08 6.27016E+06 6.38799E+06 8.23602E+05 5.39217E+06 1.37809E+05
 -1        33 2.25078E+08 8.92164E+06 1.40782E+06 1.28769E+07-3.56817E+06 7.18141E+07
 -1        34 2.37274E+08 1.09243E+07 5.15074E+05 7.19622E+06 1.32960E+05 6.14366E+07
 -1        35 1.96847E-05 1.88813E-05 1.47163E-05 6.11422E+06 5.47152E-09 2.06393E+08
 -1        36-7.02905E+06-1.52586E+04-3.23622E+05 1.82001E+06-4.48824E+06 2.42917E+08
 -1        37-2.70788E+08 2.49348E+06-1.97510E+07 7.21678E+06-7.55707E+06-1.21466E+07
 -1        38-2.84008E+08 4.56752E+05-1.90180E+07 2.14673E+06 2.52648E+05-2.15193E+07
 -1        39 5.52856E-06-7.65990E-06-1.21165E-06 1.50760E+06 2.83169E-06 5.08910E+07
 -1        40 8.41350E+06 5.63391E+05-1.35309E+04-6.37490E+05-8.52846E+06 7.24655E+07
 -1        41 2.32639E+08 1.00385E+07 6.28022E+05 1.55489E+07 7.23820E+05 6.05573E+07
 -1        42 1.16236E+08 7.75966E+06 7.24051E+06 6.48024E+06-5.18643E+02 1.35561E+08
 -1        43-3.44341E+06-2.14494E+05-2.29873E+05 4.01587E+06 1.75074E+04 2.18749E+08
 -1        44 1.05424E+08 6.42412E+06 7.55932E+06 3.68170E+06-3.98727E+06 1.59135E+08
 -1        45-2.37274E+08-1.09243E+07-5.15074E+05 7.19622E+06-1.32960E+05 6.14366E+07
 -1        46-2.38821E+08-9.02080E+06-1.93935E+06-8.64094E+06-3.78603E+06 7.11766E+07
 -1        47 2.84008E+08-4.56752E+05 1.90180E+07 2.14673E+06-2.52648E+05-2.15193E+07
 -1        48 2.87321E+08-1.32661E+06 1.96379E+07-7.94975E+06-8.01848E+06-1.25959E+07
 -1        49-1.16236E+08-7.75966E+06-7.24051E+06 6.48024E+06 5.18643E+02 1.35561E+08
 -1        50-2.39299E+08-1.05044E+07-1.01008E+06-6.13951E+06 4.88645E+05 6.04453E+07
 -1        51-1.19405E+08-6.47265E+06-8.16789E+06-9.70999E+04-3.95135E+06 1.58492E+08
 -1        52 2.49064E+08 1.33997E+07 1.10344E+07-1.10625E+07-1.77465E+06-5.98713E+07
 -1        53 2.64964E+08 1.69131E+07 1.19652E+07-6.91614E+06 4.46204E+04-5.19502E+07
 -1        54 1.31573E-06-4.15137E-06 3.84171E-08-5.89072E+06-2.78972E-06-1.98849E+08
 -1        55-7.84934E+06-3.54458E+05-5.01035E+05-1.53898E+06-1.50622E+06-2.33463E+08
 -1        56 4.20628E+08-6.46274E+06 3.01350E+07 7.04876E+05 1.25276E+07 2.27526E+06
 -1        57 4.41116E+08-3.29293E+06 2.78768E+07 7.57094E+03-3.97340E+05 1.63355E+06
 -1        58 9.56794E-06 6.68783E-06 5.63264E-06-2.48834E+03 1.03051E-06-8.39971E+04
 -1        59-1.30677E+07-8.25827E+05 9.75502E+04 4.83925E+04 1.34127E+07 2.55566E+05
 -1        60 2.57979E+08 1.53568E+07 1.16009E+07-1.54076E+07 5.78329E+04-5.00671E+07
 -1        61 1.31404E+08 9.45871E+06 9.59799E+06-6.23551E+06-9.96749E+03-1.26679E+08
 -1        62-3.89274E+06-2.84332E+05-2.80206E+05-3.75275E+06 3.36465E+05-2.10487E+08
 -1        63 1.18845E+08 7.35578E+06 8.97912E+06-2.54406E+06-1.56153E+06-1.48099E+08
 -1        64-2.64964E+08-1.69131E+07-1.19652E+07-6.91614E+06-4.46204E+04-5.19502E+07
 -1        65-2.64271E+08-1.40776E+07-1.18484E+07 7.53159E+06-1.88301E+06-5.93205E+07
 -1        66-4.41116E+08 3.29293E+06-2.78768E+07 7.57094E+03 3.97340E+05 1.63355E+06
 -1        67-4.46310E+08 4.68707E+06-2.98047E+07-5.71190E+05 1.32925E+07 2.23746E+06
 -1        68-1.31404E+08-9.45871E+06-9.59799E+06-6.23551E+06 9.96749E+03-1.26679E+08
 -1        69-2.65480E+08-1.59162E+07-1.20575E+07 6.65234E+06-3.46650E+04-5.00042E+07
 -1        70-1.34352E+08-8.05664E+06-9.90555E+06-4.20460E+05-1.56085E+06-1.47445E+08
 -1        71-4.39121E+08 5.07598E+06-1.56829E+06 8.01740E+06-6.15228E+06-8.81102E+05
 -1        72-4.64621E+08 4.14273E+05-1.57044E+06 2.61060E+06 1.83872E+05-1.00408E+07
 -1        73-8.21706E-06-5.15487E-06-1.45053E-06 2.02530E+06 1.49937E-06 6.83665E+07
 -1        74 1.37640E+07 4.65229E+04-1.22725E+04-2.97450E+05-6.20684E+06 8.81240E+07
 -1        75-2.24303E+08-4.03090E+06-3.54849E+07-9.09150E+06-1.00495E+07-5.44813E+05
 -1        76-2.38046E+08-7.15929E+06-3.49526E+07-1.50291E+06 3.27400E+05 1.10778E+07
 -1        77-3.01050E-06-3.95859E-06 4.33065E-07-9.37717E+05 4.31202E-07-3.16538E+07
 -1        78 7.05191E+06 1.03544E+06 2.12088E+05 3.28172E+05-1.10518E+07-5.07325E+07
 -1        79-4.53817E+08 1.93974E+06-1.71551E+06 6.84503E+06-1.67468E+06-7.00420E+06
 -1        80-2.21546E+08 6.18633E+06 1.08645E+07 2.27316E+06 5.54525E+04 2.86849E+07
 -1        81 6.56312E+06-3.21852E+05-1.83265E+05 8.49765E+05-1.87187E+06 7.67333E+07
 -1        82-2.00662E+08 8.86839E+06 1.07646E+07 2.36753E+06-6.39727E+06 4.32026E+07
 -1        83 4.64621E+08-4.14273E+05 1.57044E+06 2.61060E+06-1.83872E+05-1.00408E+07
 -1        84 4.65933E+08-4.99189E+06 1.27004E+06-8.08373E+06-6.52792E+06-1.35808E+06
 -1        85 2.38046E+08 7.15929E+06 3.49526E+07-1.50291E+06-3.27400E+05 1.10778E+07
 -1        86 2.37998E+08 6.14225E+06 3.57863E+07 9.07516E+06-1.06631E+07-6.64098E+03
 -1        87 2.21546E+08-6.18633E+06-1.08645E+07 2.27316E+06-5.54525E+04 2.86849E+07
 -1        88 4.66514E+08-2.58149E+06 1.19263E+06-4.29513E+06-2.05698E+06-7.15690E+06
 -1        89 2.27926E+08-8.78224E+06-1.08985E+07-2.78704E+06-6.50782E+06 4.28726E+07
 -1        90 5.38462E+08 2.30769E+08 2.30769E+08-1.19810E+07 4.90392E+01 2.61561E+08
 -1        91 5.63719E+08 2.41593E+08 2.41593E+08 7.48891E+06-1.59638E+00 2.70681E+08
 -1        92-7.03009E-06-3.14764E-06-3.39770E-06 7.72272E+06-1.52490E-07 2.60690E+08
 -1        93-1.66997E+07-7.15698E+06-7.15698E+06 8.01869E+06 5.38880E+01 2.52798E+08
 -1        94 7.63439E+06-6.93679E+06 2.46739E+07 6.65986E+06 1.46938E+07 2.62572E+07
 -1        95 1.17827E+07-5.04988E+06 2.60230E+07 2.19170E+06-4.78141E+05 1.88551E+07
 -1        96-5.61215E-06-1.16974E-06 1.33179E-06 1.81317E+06 7.55768E-07 6.12060E+07
 -1        97-3.49052E+05-7.70908E+05 1.49598E+05 5.58567E+05 1.61403E+07 7.39834E+07
 -1        98 5.53077E+08 2.37033E+08 2.37033E+08-2.21407E+06 1.49888E+01 2.64678E+08
 -1        99 2.74183E+08 1.17507E+08 1.17508E+08 7.56500E+06-5.97074E-01 2.67191E+08
 -1       100-8.12244E+06-3.48106E+06-3.48106E+06 7.91530E+06 2.01550E+01 2.55366E+08
 -1       101 2.51877E+08 1.07948E+08 1.07948E+08-2.09552E+06 7.67500E+01 2.58639E+08
 -1       102-5.63719E+08-2.41593E+08-2.41593E+08 7.48891E+06 1.59638E+00 2.70681E+08
 -1       103-5.71339E+08-2.44859E+08-2.44859E+08 2.75127E+07 5.20334E+01 2.62731E+08
 -1       104-1.17827E+07 5.04988E+06-2.60230E+07 2.19170E+06 4.78141E+05 1.88551E+07
 -1       105-8.10053E+06 5.48580E+06-2.43059E+07-5.11450E+06 1.55909E+07 2.59084E+07
 -1       106-2.74183E+08-1.17507E+08-1.17508E+08 7.56500E+06 5.97073E-01 2.67191E+08
 -1       107-5.68985E+08-2.43851E+08-2.43851E+08 1.75554E+07 1.95665E+01 2.65267E+08
 -1       108-2.85117E+08-1.22193E+08-1.22193E+08 1.77947E+07 7.77737E+01 2.59225E+08
 -1       109-9.18271E+07-6.08365E+06-1.54885E+06 1.59610E+06 2.44727E+06-5.92170E+07
 -1       110-2.50231E+06-2.56093E+04-4.13482E+03-1.68749E+06-9.06395E+05-1.45569E+08
 -1       111-5.73365E+08-1.10678E+07 1.02552E+06 1.65823E+06-5.37164E+06 4.93204E+06
 -1       112-1.67546E+07 7.26082E+04-4.27580E+05 1.98649E+05-6.02141E+06-5.83381E+06
 -1       113-8.87886E+07-2.86916E+06-5.95859E+05 1.18636E+06 1.05401E+04-5.40262E+07
 -1       114-3.48829E+07 3.50901E+06 1.32288E+07-1.58123E+06 5.55499E+05-1.04468E+08
 -1       115-9.15731E+05 4.06840E+05 1.84598E+05-2.84028E+06-2.39328E+06-1.33838E+08
 -1       116-3.11731E+08 1.06571E+06-3.99985E+05 4.90260E+06-3.76923E+05 9.83524E+06
 -1       117-8.96319E+06 5.82736E+04 1.03814E+05 4.51255E+05-2.17926E+06-4.23044E+07
 -1       118-5.71485E+08-1.35860E+07 1.81981E+06 1.09399E+06 5.76615E+05 5.57448E+06
 -1       119-2.87501E+08-6.27016E+06-6.38799E+06 8.23602E+05-5.39217E+06 1.37809E+05
 -1       120-8.21394E+06-1.80922E+05-2.61433E+05 7.84739E+04 8.67876E+04-4.35847E+06
 -1       121 8.65431E+07 6.00249E+06 1.19081E+06-5.11049E+06 2.30645E+06-5.94156E+07
 -1       122 5.40371E+08 1.11480E+07-1.68365E+06-1.36867E+06-5.06253E+06 4.84237E+06
 -1       123 2.96789E+07-3.55051E+06-1.34222E+07-1.61976E+06 5.55849E+05-1.04722E+08
 -1       124 8.68760E+07 3.65867E+06 8.04991E+05-7.38342E+06-2.23827E+04-5.40274E+07
 -1       125 2.93793E+08-1.09130E+06 4.63884E+05-4.32798E+06-3.55234E+05 9.56179E+06
 -1       126 2.54117E+08 6.38909E+06 5.59356E+06-4.94481E+05-5.43584E+06 7.31773E+04
 -1       127 5.55440E+08 1.32310E+07-2.19483E+06-1.08774E+06 8.97386E+05 5.53543E+06
 -1       128 2.38821E+08 9.02080E+06 1.93935E+06-8.64094E+06 3.78603E+06 7.11766E+07
 -1       129 7.02905E+06 1.52586E+04 3.23622E+05 1.82001E+06 4.48824E+06 2.42917E+08
 -1       130-2.87321E+08 1.32661E+06-1.96379E+07-7.94975E+06 8.01848E+06-1.25959E+07
 -1       131-8.41350E+06-5.63391E+05 1.35309E+04-6.37490E+05 8.52846E+06 7.24655E+07
 -1       132 2.39299E+08 1.05044E+07 1.01008E+06-6.13951E+06-4.88645E+05 6.04453E+07
 -1       133 1.19405E+08 6.47265E+06 8.16789E+06-9.70999E+04 3.95135E+06 1.58492E+08
 -1       134 3.44341E+06 2.14494E+05 2.29873E+05 4.01587E+06-1.75074E+04 2.18749E+08
 -1       135-2.25078E+08-8.92164E+06-1.40782E+06 1.28769E+07 3.56817E+06 7.18141E+07
 -1       136 2.70788E+08-2.49348E+06 1.97510E+07 7.21678E+06 7.55707E+06-1.21466E+07
 -1       137-1.05424E+08-6.42412E+06-7.55932E+06 3.68170E+06 3.98727E+06 1.59135E+08
 -1       138-2.32639E+08-1.00385E+07-6.28022E+05 1.55489E+07-7.23820E+05 6.05573E+07
 -1       139 2.64271E+08 1.40776E+07 1.18484E+07 7.53159E+06 1.88301E+06-5.93205E+07
 -1       140 7.84934E+06 3.54458E+05 5.01035E+05-1.53898E+06 1.50622E+06-2.33463E+08
 -1       141 4.46310E+08-4.68707E+06 2.98047E+07-5.71190E+05-1.32925E+07 2.23746E+06
 -1       142 1.30677E+07 8.25827E+05-9.75502E+04 4.83925E+04-1.34127E+07 2.55566E+05
 -1       143 2.65480E+08 1.59162E+07 1.20575E+07 6.65234E+06 3.46650E+04-5.00042E+07
 -1       144 1.34352E+08 8.05664E+06 9.90555E+06-4.20460E+05 1.56085E+06-1.47445E+08
 -1       145 3.89274E+06 2.84332E+05 2.80206E+05-3.75275E+06-3.36465E+05-2.10487E+08
 -1       146-2.49064E+08-1.33997E+07-1.10344E+07-1.10625E+07 1.77465E+06-5.98713E+07
 -1       147-4.20628E+08 6.46274E+06-3.01350E+07 7.04876E+05-1.25276E+07 2.27526E+06
 -1       148-1.18845E+08-7.35578E+06-8.97912E+06-2.54406E+06 1.56153E+06-1.48099E+08
 -1       149-2.57979E+08-1.53568E+07-1.16009E+07-1.54076E+07-5.78329E+04-5.00671E+07
 -1       150-4.65933E+08 4.99189E+06-1.27004E+06-8.08373E+06 6.52792E+06-1.35808E+06
 -1       151-1.37640E+07-4.65229E+04 1.22725E+04-2.97450E+05 6.20684E+06 8.81240E+07
 -1       152-2.37998E+08-6.14225E+06-3.57863E+07 9.07516E+06 1.06631E+07-6.64098E+03
 -1       153-7.05191E+06-1.03544E+06-2.12088E+05 3.28172E+05 1.10518E+07-5.07325E+07
 -1       154-4.66514E+08 2.58149E+06-1.19263E+06-4.29513E+06 2.05698E+06-7.15690E+06
 -1       155-2.27926E+08 8.78224E+06 1.08985E+07-2.78704E+06 6.50782E+06 4.28726E+07
 -1       156-6.56312E+06 3.21852E+05 1.83265E+05 8.49765E+05 1.87187E+06 7.67333E+07
 -1       157 4.39121E+08-5.07598E+06 1.56829E+06 8.01740E+06 6.15228E+06-8.81102E+05
 -1       158 2.24303E+08 4.03090E+06 3.54849E+07-9.09150E+06 1.00495E+07-5.44813E+05
 -1       159 2.00662E+08-8.86839E+06-1.07646E+07 2.36753E+06 6.39727E+06 4.32026E+07
 -1       160 4.53817E+08-1.93974E+06 1.71551E+06 6.84503E+06 1.67468E+06-7.00420E+06
 -1       161 5.71339E+08 2.44859E+08 2.44859E+08 2.75127E+07-5.20334E+01 2.62731E+08
 -1       162 1.66997E+07 7.15698E+06 7.15698E+06 8.01869E+06-5.38880E+01 2.52798E+08
 -1       163 8.10053E+06-5.48580E+06 2.43059E+07-5.11450E+06-1.55909E+07 2.59084E+07
 -1       164 3.49052E+05 7.70908E+05-1.49598E+05 5.58567E+05-1.61403E+07 7.39834E+07
 -1       165 5.68985E+08 2.43851E+08 2.43851E+08 1.75554E+07-1.95665E+01 2.65267E+08
 -1       166 2.85117E+08 1.22193E+08 1.22193E+08 1.77947E+07-7.77737E+01 2.59225E+08
 -1       167 8.12244E+06 3.48106E+06 3.48106E+06 7.91530E+06-2.01550E+01 2.55366E+08
 -1       168-5.38462E+08-2.30769E+08-2.30769E+08-1.19810E+07-4.90392E+01 2.61561E+08
 -1       169-7.63439E+06 6.93679E+06-2.46739E+07 6.65986E+06-1.46938E+07 2.62572E+07
 -1       170-2.51877E+08-1.07948E+08-1.07948E+08-2.09552E+06-7.67500E+01 2.58639E+08
 -1       171-5.53077E+08-2.37033E+08-2.37033E+08-2.21407E+06-1.49888E+01 2.64678E+08
 -3
    1PSTEP                        23           1           1          
    1PGM                1.000000E+00                                  
    1PGK                5.388127E+06                                  
    1PHID                         -1                                  
    1PSUBC                         0                                  
    1PMODE                        12                                  
  100CL  112 3.69436E+02         171                     2   12MODAL      1
 -4  DISP        4    1
 -5  D1          1    2    1    0
 -5  D2          1    2    2    0
 -5  D3          1    2    3    0
 -5  ALL         1    2    0    0    1ALL
 -1         1-3.13378E-15-6.35953E-03-6.35953E-03
 -1         2-3.33544E-15-6.30195E-03 1.00831E-16
 -1         3-3.39919E-15-2.71918E-16 9.41087E-17
 -1         4-3.15546E-15-2.57173E-16-6.30195E-03
 -1         5-1.96804E-15 1.42096E-04 1.42096E-04
 -1         6-1.94289E-15 1.44041E-04-2.58149E-16
 -1         7-1.98149E-15-2.17654E-17-5.45896E-17
 -1         8-2.01488E-15 3.29726E-16 1.44041E-04
 -1         9-4.98803E-05-6.33287E-03-3.17157E-03
 -1        10-3.37230E-15-3.15547E-03 9.71445E-17
 -1        11-3.29597E-15-2.27682E-16-3.15547E-03
 -1        12 4.98803E-05-3.17157E-03-6.33287E-03
 -1        13-2.82500E-15-4.43573E-03-4.43573E-03
 -1        14-2.97201E-15-4.39571E-03-1.14763E-16
 -1        15-3.03013E-15 9.24824E-17 1.99493E-17
 -1        16-2.91260E-15 1.55691E-16-4.39571E-03
 -1        17-4.25656E-04 1.42893E-04 7.15211E-05
 -1        18-1.96978E-15 7.17993E-05-1.67726E-16
 -1        19-1.99710E-15 1.76667E-16 7.17993E-05
 -1        20 4.25656E-04 7.15211E-05 1.42893E-04
 -1        21-3.38358E-15 6.30195E-03 9.06393E-17
 -1        22-3.17975E-15 6.35953E-03-6.35953E-03
 -1        23-1.97932E-15-1.44041E-04 1.45500E-16
 -1        24-2.00534E-15-1.42096E-04 1.42096E-04
 -1        25-3.40093E-15 3.15547E-03 7.74120E-17
 -1        26 4.98803E-05 6.33287E-03-3.17157E-03
 -1        27-4.98803E-05 3.17157E-03-6.33287E-03
 -1        28-3.03837E-15 4.39571E-03 1.46801E-16
 -1        29-2.87964E-15 4.43573E-03-4.43573E-03
 -1        30-1.98539E-15-7.17993E-05 4.00071E-17
 -1        31 4.25656E-04-1.42893E-04 7.15211E-05
 -1        32-4.25656E-04-7.15211E-05 1.42893E-04
 -1        33 1.06035E-15 6.28438E-03 6.28438E-03
 -1        34 1.05775E-15 6.24179E-03-2.21286E-16
 -1        35 1.10133E-15-1.76020E-16 1.62088E-17
 -1        36 1.09808E-15 8.28330E-17 6.24179E-03
 -1        37-5.86879E-16 4.62578E-03 4.62578E-03
 -1        38-5.27139E-16 4.57438E-03-2.95499E-16
 -1        39-5.16622E-16-1.00831E-16-6.31006E-17
 -1        40-5.55410E-16 1.16335E-16 4.57438E-03
 -1        41 7.89121E-06 6.26682E-03 3.12881E-03
 -1        42 1.08420E-15 3.12805E-03-9.97466E-17
 -1        43 1.10610E-15-4.75965E-17 3.12805E-03
 -1        44-7.89121E-06 3.12881E-03 6.26682E-03
 -1        45 1.11684E-15-6.24179E-03 2.48540E-16
 -1        46 1.12516E-15-6.28438E-03 6.28438E-03
 -1        47-4.65448E-16-4.57438E-03 1.54824E-16
 -1        48-5.27790E-16-4.62578E-03 4.62578E-03
 -1        49 1.10914E-15-3.12805E-03 1.30082E-16
 -1        50-7.89121E-06-6.26682E-03 3.12881E-03
 -1        51 7.89121E-06-3.12881E-03 6.26682E-03
 -1        52 3.30378E-15-4.10846E-04-4.10846E-04
 -1        53 3.26995E-15-4.03231E-04-1.00993E-16
 -1        54 3.27863E-15 1.25659E-16-2.44488E-17
 -1        55 3.30812E-15 1.90034E-16-4.03231E-04
 -1        56 2.51925E-15 4.27083E-03 4.27083E-03
 -1        57 2.46331E-15 4.21872E-03-1.32273E-16
 -1        58 2.47979E-15-4.04407E-17 8.09086E-18
 -1        59 2.53378E-15 1.11890E-16 4.21872E-03
 -1        60 4.66248E-04-4.08179E-04-2.01402E-04
 -1        61 3.28253E-15-2.03784E-04-6.19622E-17
 -1        62 3.30552E-15 1.83339E-16-2.03784E-04
 -1        63-4.66248E-04-2.01402E-04-4.08179E-04
 -1        64 3.22615E-15 4.03231E-04 4.61735E-17
 -1        65 3.26128E-15 4.10846E-04-4.10846E-04
 -1        66 2.44639E-15-4.21872E-03 1.56017E-16
 -1        67 2.50863E-15-4.27083E-03 4.27083E-03
 -1        68 3.25955E-15 2.03784E-04 1.06252E-17
 -1        69-4.66248E-04 4.08179E-04-2.01402E-04
 -1        70 4.66248E-04 2.01402E-04-4.08179E-04
 -1        71 2.53530E-15-6.10215E-03-6.10215E-03
 -1        72 2.65499E-15-6.08098E-03 1.25876E-16
 -1        73 2.69056E-15-3.18213E-17-4.55365E-18
 -1        74 2.56219E-15-1.85344E-16-6.08098E-03
 -1        75 3.25911E-15-4.80962E-03-4.80962E-03
 -1        76 3.32980E-15-4.74049E-03-9.75782E-18
 -1        77 3.34802E-15 1.54865E-16-5.74627E-17
 -1        78 3.27863E-15 8.17488E-17-4.74049E-03
 -1        79-1.43217E-04-6.09306E-03-3.04564E-03
 -1        80 2.68145E-15-3.04338E-03 5.76796E-17
 -1        81 2.62897E-15-1.28763E-16-3.04338E-03
 -1        82 1.43217E-04-3.04564E-03-6.09306E-03
 -1        83 2.66020E-15 6.08098E-03-1.24683E-16
 -1        84 2.52229E-15 6.10215E-03-6.10215E-03
 -1        85 3.30899E-15 4.74049E-03-1.01915E-16
 -1        86 3.23613E-15 4.80962E-03-4.80962E-03
 -1        87 2.67494E-15 3.04338E-03-6.02816E-17
 -1        88 1.43217E-04 6.09306E-03-3.04564E-03
 -1        89-1.43217E-04 3.04564E-03-6.09306E-03
 -1        90 0.00000E+00 0.00000E+00 0.00000E+00
 -1        91 0.00000E+00 0.00000E+00 0.00000E+00
 -1        92 0.00000E+00 0.00000E+00 0.00000E+00
 -1        93 0.00000E+00 0.00000E+00 0.00000E+00
 -1        94 1.39168E-15-4.01192E-03-4.01192E-03
 -1        95 1.37477E-15-4.02574E-03 2.11419E-16
 -1        96 1.36566E-15-9.53048E-17-7.64363E-18
 -1        97 1.36653E-15-3.41307E-16-4.02574E-03
 -1        98 0.00000E+00 0.00000E+00 0.00000E+00
 -1        99 0.00000E+00 0.00000E+00 0.00000E+00
 -1       100 0.00000E+00 0.00000E+00 0.00000E+00
 -1       101 0.00000E+00 0.00000E+00 0.00000E+00
 -1       102 0.00000E+00 0.00000E+00 0.00000E+00
 -1       103 0.00000E+00 0.00000E+00 0.00000E+00
 -1       104 1.36783E-15 4.02574E-03-2.15973E-16
 -1       105 1.36436E-15 4.01192E-03-4.01192E-03
 -1       106 0.00000E+00 0.00000E+00 0.00000E+00
 -1       107 0.00000E+00 0.00000E+00 0.00000E+00
 -1       108 0.00000E+00 0.00000E+00 0.00000E+00
 -1       109-3.51563E-15-6.35953E-03 6.35953E-03
 -1       110-3.57310E-15-2.75821E-16 6.30195E-03
 -1       111-1.90212E-15 1.42096E-04-1.42096E-04
 -1       112-1.91557E-15-8.34971E-17-1.44041E-04
 -1       113 4.98803E-05-6.33287E-03 3.17157E-03
 -1       114-4.98803E-05-3.17157E-03 6.33287E-03
 -1       115-3.48810E-15-2.71051E-16 3.15547E-03
 -1       116-3.06482E-15-4.43573E-03 4.43573E-03
 -1       117-3.10776E-15-9.34582E-17 4.39571E-03
 -1       118 4.25656E-04 1.42893E-04-7.15211E-05
 -1       119-4.25656E-04 7.15211E-05-1.42893E-04
 -1       120-1.95894E-15 1.34712E-17-7.17993E-05
 -1       121-3.57353E-15 6.35953E-03 6.35953E-03
 -1       122-1.91947E-15-1.42096E-04-1.42096E-04
 -1       123 4.98803E-05 3.17157E-03 6.33287E-03
 -1       124-4.98803E-05 6.33287E-03 3.17157E-03
 -1       125-3.11903E-15 4.43573E-03 4.43573E-03
 -1       126 4.25656E-04-7.15211E-05-1.42893E-04
 -1       127-4.25656E-04-1.42893E-04-7.15211E-05
 -1       128 1.04430E-15 6.28438E-03-6.28438E-03
 -1       129 1.08073E-15-4.19640E-16-6.24179E-03
 -1       130-4.56910E-16 4.62578E-03-4.62578E-03
 -1       131-4.50594E-16-3.20490E-16-4.57438E-03
 -1       132-7.89121E-06 6.26682E-03-3.12881E-03
 -1       133 7.89121E-06 3.12881E-03-6.26682E-03
 -1       134 1.09244E-15-3.35777E-16-3.12805E-03
 -1       135 1.09418E-15-6.28438E-03-6.28438E-03
 -1       136-4.25775E-16-4.62578E-03-4.62578E-03
 -1       137-7.89121E-06-3.12881E-03-6.26682E-03
 -1       138 7.89121E-06-6.26682E-03-3.12881E-03
 -1       139 3.15763E-15-4.10846E-04 4.10846E-04
 -1       140 3.17801E-15 5.70019E-17 4.03231E-04
 -1       141 2.34882E-15 4.27083E-03-4.27083E-03
 -1       142 2.37093E-15-2.27899E-16-4.21872E-03
 -1       143-4.66248E-04-4.08179E-04 2.01402E-04
 -1       144 4.66248E-04-2.01402E-04 4.08179E-04
 -1       145 3.23613E-15 9.82829E-17 2.03784E-04
 -1       146 3.12597E-15 4.10846E-04 4.10846E-04
 -1       147 2.35359E-15-4.27083E-03-4.27083E-03
 -1       148-4.66248E-04 2.01402E-04 4.08179E-04
 -1       149 4.66248E-04 4.08179E-04 2.01402E-04
 -1       150 2.66974E-15-6.10215E-03 6.10215E-03
 -1       151 2.72699E-15 1.15955E-16 6.08098E-03
 -1       152 3.31853E-15-4.80962E-03 4.80962E-03
 -1       153 3.34108E-15 1.94181E-16 4.74049E-03
 -1       154 1.43217E-04-6.09306E-03 3.04564E-03
 -1       155-1.43217E-04-3.04564E-03 6.09306E-03
 -1       156 2.71137E-15 4.41270E-17 3.04338E-03
 -1       157 2.70183E-15 6.10215E-03 6.10215E-03
 -1       158 3.31419E-15 4.80962E-03 4.80962E-03
 -1       159 1.43217E-04 3.04564E-03 6.09306E-03
 -1       160-1.43217E-04 6.09306E-03 3.04564E-03
 -1       161 0.00000E+00 0.00000E+00 0.00000E+00
 -1       162 0.00000E+00 0.00000E+00 0.00000E+00
 -1       163 1.40317E-15-4.01192E-03 4.01192E-03
 -1       164 1.39255E-15 1.40106E-16 4.02574E-03
 -1       165 0.00000E+00 0.00000E+00 0.00000E+00
 -1       166 0.00000E+00 0.00000E+00 0.00000E+00
 -1       167 0.00000E+00 0.00000E+00 0.00000E+00
 -1       168 0.00000E+00 0.00000E+00 0.00000E+00
 -1       169 1.40773E-15 4.01192E-03 4.01192E-03
 -1       170 0.00000E+00 0.00000E+00 0.00000E+00
 -1       171 0.00000E+00 0.00000E+00 0.00000E+00
 -3
    1PSTEP                        24           1           1          
    1PGM                1.000000E+00                                  
    1PGK                5.388127E+06                                  
    1PHID                         -1                                  
    1PSUBC                         0                                  
    1PMODE                        12                                  
  100CL  112 3.69436E+02         171                     2   12MODAL      1
 -4  STRESS      6    1
 -5  SXX         1    4    1    1
 -5  SYY         1    4    2    2
 -5  SZZ         1    4    3    3
 -5  SXY         1    4    1    2
 -5  SYZ         1    4    2    3
 -5  SZX         1    4    3    1
 -1         1 1.20930E-05-1.50859E+07 1.50859E+07-1.52059E+07 1.12338E-05-1.52059E+07
 -1         2-2.19699E-06 1.42753E-05-1.50222E-06-7.60361E+07-6.58300E+06 6.19749E-06
 -1         3 1.68995E-06 2.99007E-05-4.75755E-06-1.93759E-05-3.20134E-06 3.16024E-07
 -1         4 5.96885E-06-4.74984E-05 1.08145E-05 7.96327E-06 6.58300E+06-7.60361E+07
 -1         5-2.64698E-04-3.82503E+05 3.82503E+05-1.91941E+08-3.41213E-06-1.91941E+08
 -1         6-2.51783E-04 5.59160E-05 2.45631E-06-7.10722E+08-1.44233E+05-2.89257E-06
 -1         7-2.97141E-04-4.63280E-05-1.85825E-05 1.26439E-05-1.66119E-06 2.89388E-06
 -1         8-2.54643E-04 2.46665E-05-1.08594E-05 3.77168E-06 1.44233E+05-7.10722E+08
 -1         9 4.00252E+07-6.59849E+06 1.47566E+07-4.57057E+07-2.96257E+06 3.60743E+05
 -1        10-3.79141E-06 8.22730E-06-1.82679E-06-3.05152E+07-3.62043E+06 3.20375E-06
 -1        11 1.20671E-05 1.44797E-05 1.38916E-05-5.66756E-06 3.62043E+06-3.05152E+07
 -1        12-4.00252E+07-1.47566E+07 6.59849E+06 3.60743E+05 2.96257E+06-4.57057E+07
 -1        13-1.19036E-04-1.08909E+07 1.08909E+07-1.03748E+08 2.95933E-06-1.03748E+08
 -1        14-1.27266E-04 2.45646E-05 1.53678E-05-3.94248E+08-4.94184E+06 1.02073E-06
 -1        15-1.36320E-04 7.86082E-06 1.03269E-05 4.53920E-06-5.36970E-06 3.52898E-07
 -1        16-1.43589E-04-7.37067E-05-2.46689E-05 9.44827E-07 4.94184E+06-3.94248E+08
 -1        17-4.35433E+06-2.73098E+06-2.15482E+06-4.51454E+08-4.51005E+04-3.00764E+07
 -1        18-2.63771E-04 2.45334E-05 9.52873E-06-2.90106E+08-9.91326E+04 2.43104E-07
 -1        19-2.41440E-04 7.39225E-05 1.95491E-05 8.70239E-06 9.91326E+04-2.90106E+08
 -1        20 4.35433E+06 2.15482E+06 2.73098E+06-3.00764E+07 4.51005E+04-4.51454E+08
 -1        21 2.20630E-06-1.88686E-05 1.85659E-05 7.60361E+07-6.58300E+06 1.56877E-06
 -1        22 3.72720E-05 1.50859E+07-1.50859E+07 1.52059E+07 1.45938E-05-1.52059E+07
 -1        23-2.54135E-04 8.17344E-05 3.63239E-05 7.10722E+08-1.44233E+05 5.85141E-06
 -1        24-2.93499E-04 3.82503E+05-3.82503E+05 1.91941E+08-1.62102E-05-1.91941E+08
 -1        25-1.13072E-05-1.90539E-05-1.12271E-05 3.05152E+07-3.62043E+06 1.69672E-06
 -1        26-4.00252E+07 6.59849E+06-1.47566E+07 4.57057E+07-2.96257E+06 3.60743E+05
 -1        27 4.00252E+07 1.47566E+07-6.59849E+06-3.60743E+05 2.96257E+06-4.57057E+07
 -1        28-1.25738E-04 1.55102E-05 3.34745E-05 3.94248E+08-4.94184E+06 1.10181E-06
 -1        29-1.01532E-04 1.08909E+07-1.08909E+07 1.03748E+08 7.19941E-07-1.03748E+08
 -1        30-2.69135E-04 3.91216E-05 1.07898E-05 2.90106E+08-9.91326E+04 3.66219E-06
 -1        31 4.35433E+06 2.73098E+06 2.15482E+06 4.51454E+08-4.51005E+04-3.00764E+07
 -1        32-4.35433E+06-2.15482E+06-2.73098E+06 3.00764E+07 4.51005E+04-4.51454E+08
 -1        33-3.40342E-04 8.51084E+06-8.51084E+06 1.18141E+07 3.23390E-06 1.18141E+07
 -1        34-3.64272E-04-6.17672E-05-2.76091E-05 2.16899E+07 2.72163E+06 6.66478E-08
 -1        35-3.25817E-04 3.29908E-05 1.83692E-06 1.06139E-06 1.00007E-05-1.75177E-06
 -1        36-3.51833E-04-9.22941E-07 4.05125E-07-6.73288E-06-2.72163E+06 2.16899E+07
 -1        37-3.03212E-04 1.36280E+07-1.36280E+07-1.07703E+08-9.22078E-06-1.07703E+08
 -1        38-3.05180E-04-8.89041E-06-8.05687E-06-3.63078E+08 6.07047E+06-7.29167E-07
 -1        39-3.13676E-04-1.11831E-05-6.73255E-06 3.96729E-07 3.87832E-06 1.72210E-06
 -1        40-3.24384E-04-3.02354E-05-1.32918E-05 1.21864E-06-6.07047E+06-3.63078E+08
 -1        41-4.86580E+07-1.24918E+06-1.22924E+07 1.67709E+07 7.86649E+05 4.62505E+06
 -1        42-3.44844E-04-1.16951E-05-1.22198E-05 9.66859E+06 1.93498E+06-7.74511E-07
 -1        43-3.49365E-04-4.72652E-06-1.13342E-05-2.55625E-06-1.93498E+06 9.66859E+06
 -1        44 4.86580E+07 1.22924E+07 1.24918E+06 4.62505E+06-7.86649E+05 1.67709E+07
 -1        45-3.50993E-04-6.71558E-05-2.91890E-05-2.16899E+07 2.72163E+06 3.82570E-07
 -1        46-3.28137E-04-8.51084E+06 8.51084E+06-1.18141E+07 2.87552E-06 1.18141E+07
 -1        47-3.09383E-04-3.63216E-07 1.19116E-06 3.63078E+08 6.07047E+06 5.44894E-06
 -1        48-3.25308E-04-1.36280E+07 1.36280E+07 1.07703E+08 2.31870E-06-1.07703E+08
 -1        49-3.38854E-04-1.60397E-05-1.41072E-05-9.66859E+06 1.93498E+06-1.20659E-06
 -1        50 4.86580E+07 1.24918E+06 1.22924E+07-1.67709E+07 7.86649E+05 4.62505E+06
 -1        51-4.86580E+07-1.22924E+07-1.24918E+06-4.62505E+06-7.86649E+05 1.67709E+07
 -1        52-8.99890E-05-9.38635E+05 9.38635E+05 1.73368E+08-3.69525E-06 1.73368E+08
 -1        53-9.52755E-05-8.44081E-06 2.34460E-06 7.39115E+08-3.16091E+04 3.59357E-06
 -1        54-8.62360E-05 1.79485E-05 8.52543E-06-9.67735E-07 3.19858E-07 9.16334E-07
 -1        55-8.83681E-05-4.15125E-05-6.15371E-07-5.81463E-06 3.16091E+04 7.39115E+08
 -1        56-2.11657E-04 1.44401E+07-1.44401E+07 1.11625E+08-4.24593E-06 1.11625E+08
 -1        57-2.41344E-04-4.08646E-05-2.61515E-05 4.01473E+08 6.67184E+06 1.80909E-06
 -1        58-2.08565E-04 2.83504E-05 2.23103E-06 2.33682E-06 7.75601E-06-6.92151E-07
 -1        59-2.25259E-04-2.34134E-05 9.22009E-06-1.53016E-06-6.67184E+06 4.01473E+08
 -1        60 7.33742E+06-8.17530E+05 9.06900E+04 4.56351E+08 1.59739E+05 1.45977E+07
 -1        61-9.28649E-05 1.42698E-06 2.38792E-06 2.98027E+08-1.91348E+05 2.36282E-06
 -1        62-8.04274E-05 4.90521E-06 9.63378E-06-2.62441E-06 1.91348E+05 2.98027E+08
 -1        63-7.33742E+06-9.06900E+04 8.17530E+05 1.45977E+07-1.59739E+05 4.56351E+08
 -1        64-8.13631E-05 3.24808E-05 1.41677E-05-7.39115E+08-3.16091E+04 1.75089E-07
 -1        65-7.99662E-05 9.38635E+05-9.38635E+05-1.73368E+08 2.51489E-06 1.73368E+08
 -1        66-2.23180E-04-2.75522E-05-1.32369E-05-4.01473E+08 6.67184E+06 3.79980E-07
 -1        67-2.12457E-04-1.44401E+07 1.44401E+07-1.11625E+08 2.77907E-06 1.11625E+08
 -1        68-8.35594E-05 2.67358E-05 1.05873E-05-2.98027E+08-1.91348E+05 4.14671E-07
 -1        69-7.33742E+06 8.17530E+05-9.06900E+04-4.56351E+08 1.59739E+05 1.45977E+07
 -1        70 7.33742E+06 9.06900E+04-8.17530E+05-1.45977E+07-1.59739E+05 4.56351E+08
 -1        71 2.18713E-04-4.67888E+06 4.67888E+06 3.46739E+07 9.27757E-06 3.46739E+07
 -1        72 2.42625E-04 2.68086E-05 2.35562E-05-1.35361E+08-1.69206E+06-4.27317E-06
 -1        73 2.42461E-04 3.70760E-06 2.93974E-05 4.13618E-06 5.61179E-06-5.76480E-06
 -1        74 2.50225E-04 6.10992E-05 4.96251E-05 7.46953E-06 1.69206E+06-1.35361E+08
 -1        75 7.03233E-05-1.96488E+07 1.96488E+07 1.19507E+08 1.09959E-06 1.19507E+08
 -1        76 5.73732E-05-7.64057E-06-6.10016E-06 3.17775E+08-9.28167E+06-6.14556E-07
 -1        77 5.63226E-05-7.39279E-06-9.02030E-07 1.90770E-06 4.71999E-06-3.86441E-06
 -1        78 7.19409E-05-1.15726E-05 2.68593E-06-7.57165E-07 9.28167E+06 3.17775E+08
 -1        79 2.63291E+07 1.88239E+06 8.17294E+06-5.03660E+07-6.16661E+05 3.94474E+07
 -1        80 2.42513E-04 1.51170E-05 2.50945E-05-4.56892E+07-1.07540E+06-3.69211E-06
 -1        81 2.43097E-04 2.23412E-05 3.66661E-05 3.57436E-06 1.07540E+06-4.56892E+07
 -1        82-2.63291E+07-8.17294E+06-1.88239E+06 3.94474E+07 6.16661E+05-5.03660E+07
 -1        83 2.31256E-04 2.82191E-07 1.42439E-05 1.35361E+08-1.69206E+06 3.51737E-06
 -1        84 2.11782E-04 4.67888E+06-4.67888E+06-3.46739E+07-1.20218E-05 3.46739E+07
 -1        85 5.62072E-05 1.73226E-06-3.03611E-06-3.17775E+08-9.28167E+06-1.47521E-06
 -1        86 5.88847E-05 1.96488E+07-1.96488E+07-1.19507E+08-3.88303E-06 1.19507E+08
 -1        87 2.37811E-04 1.88185E-06 2.38282E-05 4.56892E+07-1.07540E+06-2.35997E-06
 -1        88-2.63291E+07-1.88239E+06-8.17294E+06 5.03660E+07-6.16661E+05 3.94474E+07
 -1        89 2.63291E+07 8.17294E+06 1.88239E+06-3.94474E+07 6.16661E+05-5.03660E+07
 -1        90 4.07734E-04-3.36306E+01 3.36309E+01-3.82517E+08-3.72111E-07-3.82517E+08
 -1        91 3.82702E-04 1.63768E-04 1.63924E-04-3.85458E+08 1.46989E+01 2.76356E-05
 -1        92 3.73209E-04 1.60136E-04 1.59896E-04-1.34222E-05 1.18504E-07-9.86736E-07
 -1        93 3.90974E-04 1.67487E-04 1.67826E-04-4.54127E-05-1.46989E+01-3.85458E+08
 -1        94 2.39827E-04 5.17059E+06-5.17059E+06-1.90637E+08 3.17379E-06-1.90637E+08
 -1        95 2.55680E-04-1.51834E-05-1.75911E-05-2.77957E+08 2.90897E+06 6.11879E-06
 -1        96 2.53887E-04-3.40348E-05-1.65681E-05-3.26661E-06 4.02224E-06-2.12714E-06
 -1        97 2.49987E-04-1.04776E-05-1.03391E-05-7.78260E-06-2.90897E+06-2.77957E+08
 -1        98-1.92794E+07-8.26249E+06-8.26266E+06-3.84055E+08 8.12758E+00-1.91057E+08
 -1        99 3.79148E-04 1.62364E-04 1.62506E-04-1.92847E+08 6.57131E+00 1.32294E-05
 -1       100 3.82595E-04 1.64132E-04 1.64271E-04-3.01618E-05-6.57131E+00-1.92847E+08
 -1       101 1.92794E+07 8.26266E+06 8.26249E+06-1.91057E+08-8.12758E+00-3.84055E+08
 -1       102 3.78653E-04 1.62518E-04 1.62643E-04 3.85458E+08 1.46989E+01-2.84910E-05
 -1       103 3.94653E-04 3.36309E+01-3.36306E+01 3.82517E+08 1.41081E-07-3.82517E+08
 -1       104 2.50758E-04-2.99634E-05-2.09578E-05 2.77957E+08 2.90897E+06-4.36883E-06
 -1       105 2.33229E-04-5.17059E+06 5.17059E+06 1.90637E+08-2.47821E-06-1.90637E+08
 -1       106 3.75590E-04 1.60690E-04 1.60846E-04 1.92847E+08 6.57131E+00-1.45277E-05
 -1       107 1.92794E+07 8.26249E+06 8.26266E+06 3.84055E+08 8.12758E+00-1.91057E+08
 -1       108-1.92794E+07-8.26266E+06-8.26249E+06 1.91057E+08-8.12758E+00-3.84055E+08
 -1       109-3.42242E-05 1.50859E+07-1.50859E+07-1.52059E+07 5.15515E-05 1.52059E+07
 -1       110-1.94255E-05 1.53668E-06 1.81422E-06 4.96804E-06 6.58300E+06 7.60361E+07
 -1       111-2.74913E-04 3.82503E+05-3.82503E+05-1.91941E+08-2.68302E-06 1.91941E+08
 -1       112-2.78242E-04 5.24673E-05 1.58485E-05-1.74354E-06 1.44233E+05 7.10722E+08
 -1       113-4.00252E+07 6.59849E+06-1.47566E+07-4.57057E+07-2.96257E+06-3.60743E+05
 -1       114 4.00252E+07 1.47566E+07-6.59849E+06 3.60743E+05 2.96257E+06 4.57057E+07
 -1       115-1.58632E-05-4.86616E-06-7.06315E-06-9.20765E-06 3.62043E+06 3.05152E+07
 -1       116-1.76128E-04 1.08909E+07-1.08909E+07-1.03748E+08 1.98519E-06 1.03748E+08
 -1       117-1.16888E-04 1.10541E-04 5.23645E-05 6.85628E-07 4.94184E+06 3.94248E+08
 -1       118 4.35433E+06 2.73098E+06 2.15482E+06-4.51454E+08-4.51005E+04 3.00764E+07
 -1       119-4.35433E+06-2.15482E+06-2.73098E+06-3.00764E+07 4.51005E+04 4.51454E+08
 -1       120-3.33067E-04-9.22842E-05-5.66421E-05 6.35428E-06 9.91326E+04 2.90106E+08
 -1       121-4.29644E-05-1.50859E+07 1.50859E+07 1.52059E+07-4.28249E-05 1.52059E+07
 -1       122-3.26837E-04-3.82503E+05 3.82503E+05 1.91941E+08 3.23210E-05 1.91941E+08
 -1       123-4.00252E+07-1.47566E+07 6.59849E+06-3.60743E+05 2.96257E+06 4.57057E+07
 -1       124 4.00252E+07-6.59849E+06 1.47566E+07 4.57057E+07-2.96257E+06-3.60743E+05
 -1       125-2.18351E-04-1.08909E+07 1.08909E+07 1.03748E+08 2.07474E-05 1.03748E+08
 -1       126 4.35433E+06 2.15482E+06 2.73098E+06 3.00764E+07 4.51005E+04 4.51454E+08
 -1       127-4.35433E+06-2.73098E+06-2.15482E+06 4.51454E+08-4.51005E+04 3.00764E+07
 -1       128-2.96128E-04-8.51084E+06 8.51084E+06 1.18141E+07-8.75138E-06-1.18141E+07
 -1       129-3.33316E-04-6.66766E-05-1.23288E-05-4.45791E-07-2.72163E+06-2.16899E+07
 -1       130-2.73364E-04-1.36280E+07 1.36280E+07-1.07703E+08-9.62516E-06 1.07703E+08
 -1       131-2.84215E-04 3.07979E-05 2.05599E-05 1.10595E-09-6.07047E+06 3.63078E+08
 -1       132 4.86580E+07 1.24918E+06 1.22924E+07 1.67709E+07 7.86649E+05-4.62505E+06
 -1       133-4.86580E+07-1.22924E+07-1.24918E+06 4.62505E+06-7.86649E+05-1.67709E+07
 -1       134-3.23717E-04 1.83762E-07 3.51574E-07 1.22834E-06-1.93498E+06-9.66859E+06
 -1       135-2.54577E-04 8.51084E+06-8.51084E+06-1.18141E+07-1.71965E-05-1.18141E+07
 -1       136-3.00024E-04 1.36280E+07-1.36280E+07 1.07703E+08 9.25742E-06 1.07703E+08
 -1       137 4.86580E+07 1.22924E+07 1.24918E+06-4.62505E+06-7.86649E+05-1.67709E+07
 -1       138-4.86580E+07-1.24918E+06-1.22924E+07-1.67709E+07 7.86649E+05-4.62505E+06
 -1       139-1.12360E-04 9.38635E+05-9.38635E+05 1.73368E+08 2.19505E-06-1.73368E+08
 -1       140-1.17424E-04-2.15496E-06-1.69100E-05-1.89198E-06 3.16091E+04-7.39115E+08
 -1       141-2.01154E-04-1.44401E+07 1.44401E+07 1.11625E+08 6.17027E-06-1.11625E+08
 -1       142-2.13965E-04-1.36178E-05-4.33996E-07 1.22943E-06-6.67184E+06-4.01473E+08
 -1       143-7.33742E+06 8.17530E+05-9.06900E+04 4.56351E+08 1.59739E+05-1.45977E+07
 -1       144 7.33742E+06 9.06900E+04-8.17530E+05 1.45977E+07-1.59739E+05-4.56351E+08
 -1       145-1.07669E-04-7.38479E-06-8.13285E-06-2.49596E-06 1.91348E+05-2.98027E+08
 -1       146-1.24681E-04-9.38635E+05 9.38635E+05-1.73368E+08 8.92766E-07-1.73368E+08
 -1       147-1.86188E-04 1.44401E+07-1.44401E+07-1.11625E+08-8.74361E-06-1.11625E+08
 -1       148-7.33742E+06-9.06900E+04 8.17530E+05-1.45977E+07-1.59739E+05-4.56351E+08
 -1       149 7.33742E+06-8.17530E+05 9.06900E+04-4.56351E+08 1.59739E+05-1.45977E+07
 -1       150 2.41010E-04 4.67888E+06-4.67888E+06 3.46739E+07-1.45340E-06-3.46739E+07
 -1       151 2.36671E-04 1.57594E-05 3.80399E-06-9.37842E-07 1.69206E+06 1.35361E+08
 -1       152 5.04504E-05 1.96488E+07-1.96488E+07 1.19507E+08-9.29576E-07-1.19507E+08
 -1       153 4.32730E-05 1.86637E-06-7.93114E-06 1.98465E-06 9.28167E+06-3.17775E+08
 -1       154-2.63291E+07-1.88239E+06-8.17294E+06-5.03660E+07-6.16661E+05-3.94474E+07
 -1       155 2.63291E+07 8.17294E+06 1.88239E+06 3.94474E+07 6.16661E+05 5.03660E+07
 -1       156 2.45833E-04 2.17803E-05 2.40813E-05 4.42809E-06 1.07540E+06 4.56892E+07
 -1       157 2.42330E-04-4.67888E+06 4.67888E+06-3.46739E+07-3.84729E-06-3.46739E+07
 -1       158 4.63128E-05-1.96488E+07 1.96488E+07-1.19507E+08-4.84211E-06-1.19507E+08
 -1       159-2.63291E+07-8.17294E+06-1.88239E+06-3.94474E+07 6.16661E+05 5.03660E+07
 -1       160 2.63291E+07 1.88239E+06 8.17294E+06 5.03660E+07-6.16661E+05-3.94474E+07
 -1       161 3.96659E-04 3.36309E+01-3.36306E+01-3.82517E+08-3.23707E-07 3.82517E+08
 -1       162 3.82570E-04 1.63749E-04 1.63788E-04 1.71587E-05-1.46989E+01 3.85458E+08
 -1       163 2.56809E-04-5.17059E+06 5.17059E+06-1.90637E+08 1.49925E-06 1.90637E+08
 -1       164 2.56964E-04-2.40526E-05-2.84524E-05 1.10827E-06-2.90897E+06 2.77957E+08
 -1       165 1.92794E+07 8.26249E+06 8.26266E+06-3.84055E+08 8.12758E+00 1.91057E+08
 -1       166-1.92794E+07-8.26266E+06-8.26249E+06-1.91057E+08-8.12758E+00 3.84055E+08
 -1       167 3.78237E-04 1.62144E-04 1.61857E-04 1.97347E-06-6.57131E+00 1.92847E+08
 -1       168 3.94547E-04-3.36306E+01 3.36309E+01 3.82517E+08-2.55740E-07 3.82517E+08
 -1       169 2.61254E-04 5.17059E+06-5.17059E+06 1.90637E+08-2.60975E-07 1.90637E+08
 -1       170 1.92794E+07 8.26266E+06 8.26249E+06 1.91057E+08-8.12758E+00 3.84055E+08
 -1       171-1.92794E+07-8.26249E+06-8.26266E+06 3.84055E+08 8.12758E+00 1.91057E+08
 -3
    1PSTEP                        25           1           1          
    1PGM                1.000000E+00                                  
    1PGK                5.778153E+06                                  
    1PHID                         -1                                  
    1PSUBC                         0                                  
    1PMODE                        13                                  
  100CL  113 3.82573E+02         171                     2   13MODAL      1
 -4  DISP        4    1
 -5  D1          1    2    1    0
 -5  D2          1    2    2    0
 -5  D3          1    2    3    0
 -5  ALL         1    2    0    0    1ALL
 -1         1 5.03546E-03-9.62915E-06 9.62915E-06
 -1         2 5.07174E-03-6.33046E-15 8.59269E-06
 -1         3 5.10851E-03-1.76896E-15-5.16080E-17
 -1         4 5.07174E-03-8.59269E-06-4.70674E-15
 -1         5 2.92120E-03-3.14566E-04 3.14566E-04
 -1         6 2.94518E-03 9.49327E-16 3.14366E-04
 -1         7 2.96916E-03 2.83410E-16-3.32850E-17
 -1         8 2.94518E-03-3.14366E-04-7.92891E-17
 -1         9 5.06443E-03-4.57088E-06 9.23752E-06
 -1        10 5.10101E-03-4.15087E-15 4.21651E-06
 -1        11 5.10101E-03-4.21651E-06-2.34274E-15
 -1        12 5.06443E-03-9.23752E-06 4.57088E-06
 -1        13 4.46964E-03-1.62010E-04 1.62010E-04
 -1        14 4.50943E-03-2.55265E-15 1.61707E-04
 -1        15 4.54924E-03 6.76325E-16 6.02816E-17
 -1        16 4.50943E-03-1.61707E-04-3.15568E-15
 -1        17 2.94010E-03-1.58649E-04 3.14584E-04
 -1        18 2.96408E-03 7.43329E-16 1.58577E-04
 -1        19 2.96408E-03-1.58577E-04-1.33804E-16
 -1        20 2.94010E-03-3.14584E-04 1.58649E-04
 -1        21 5.07174E-03 3.04661E-15-8.59269E-06
 -1        22 5.03546E-03-9.62915E-06-9.62915E-06
 -1        23 2.94518E-03 9.56266E-16-3.14366E-04
 -1        24 2.92120E-03-3.14566E-04-3.14566E-04
 -1        25 5.10101E-03 4.59593E-16-4.21651E-06
 -1        26 5.06443E-03-4.57088E-06-9.23752E-06
 -1        27 5.06443E-03-9.23752E-06-4.57088E-06
 -1        28 4.50943E-03 3.68108E-15-1.61707E-04
 -1        29 4.46964E-03-1.62010E-04-1.62010E-04
 -1        30 2.96408E-03 8.68229E-16-1.58577E-04
 -1        31 2.94010E-03-1.58649E-04-3.14584E-04
 -1        32 2.94010E-03-3.14584E-04-1.58649E-04
 -1        33-1.62924E-03-3.64913E-04 3.64913E-04
 -1        34-1.64276E-03 3.31332E-15 3.64388E-04
 -1        35-1.65589E-03-1.08507E-15 2.03830E-17
 -1        36-1.64276E-03-3.64388E-04 4.48209E-15
 -1        37 7.26491E-04-3.52006E-04 3.52006E-04
 -1        38 7.32965E-04 2.59254E-15 3.51567E-04
 -1        39 7.39406E-04-5.66496E-16-1.42464E-16
 -1        40 7.32965E-04-3.51567E-04 3.07566E-15
 -1        41-1.63970E-03-1.83873E-04 3.64875E-04
 -1        42-1.65304E-03 1.11890E-15 1.83727E-04
 -1        43-1.65304E-03-1.83727E-04 2.28235E-15
 -1        44-1.63970E-03-3.64875E-04 1.83873E-04
 -1        45-1.64276E-03-5.44269E-15-3.64388E-04
 -1        46-1.62924E-03-3.64913E-04-3.64913E-04
 -1        47 7.32965E-04-3.72163E-15-3.51567E-04
 -1        48 7.26491E-04-3.52006E-04-3.52006E-04
 -1        49-1.65304E-03-3.20143E-15-1.83727E-04
 -1        50-1.63970E-03-1.83873E-04-3.64875E-04
 -1        51-1.63970E-03-3.64875E-04-1.83873E-04
 -1        52-4.81136E-03-1.12986E-04 1.12986E-04
 -1        53-4.85528E-03 9.23740E-16 1.10531E-04
 -1        54-4.89836E-03 9.93129E-16 4.25007E-17
 -1        55-4.85528E-03-1.10531E-04-1.37911E-16
 -1        56-3.62500E-03-2.46469E-04 2.46469E-04
 -1        57-3.65735E-03 2.94079E-15 2.46413E-04
 -1        58-3.69016E-03 1.33791E-16 1.29454E-16
 -1        59-3.65735E-03-2.46413E-04 3.12749E-15
 -1        60-4.84494E-03-5.73775E-05 1.11740E-04
 -1        61-4.88837E-03 9.30679E-16 5.60841E-05
 -1        62-4.88837E-03-5.60841E-05-5.37764E-17
 -1        63-4.84494E-03-1.11740E-04 5.73775E-05
 -1        64-4.85528E-03 1.22645E-15-1.10531E-04
 -1        65-4.81136E-03-1.12986E-04-1.12986E-04
 -1        66-3.65735E-03-2.88284E-15-2.46413E-04
 -1        67-3.62500E-03-2.46469E-04-2.46469E-04
 -1        68-4.88837E-03 1.11369E-15-5.60841E-05
 -1        69-4.84494E-03-5.73775E-05-1.11740E-04
 -1        70-4.84494E-03-1.11740E-04-5.73775E-05
 -1        71-3.95808E-03 2.05245E-04-2.05245E-04
 -1        72-4.02133E-03-4.71932E-15-2.08627E-04
 -1        73-4.08566E-03-9.93563E-16-1.86483E-17
 -1        74-4.02133E-03 2.08627E-04-3.66352E-15
 -1        75-4.94310E-03 6.75182E-05-6.75182E-05
 -1        76-4.98396E-03-2.62507E-15-6.52887E-05
 -1        77-5.02478E-03 3.58871E-16-1.04517E-16
 -1        78-4.98396E-03 6.52887E-05-3.03100E-15
 -1        79-3.99644E-03 1.04663E-04-2.06888E-04
 -1        80-4.06032E-03-2.88485E-15-1.06089E-04
 -1        81-4.06032E-03 1.06089E-04-1.84163E-15
 -1        82-3.99644E-03 2.06888E-04-1.04663E-04
 -1        83-4.02133E-03 2.63786E-15 2.08627E-04
 -1        84-3.95808E-03 2.05245E-04 2.05245E-04
 -1        85-4.98396E-03 3.30573E-15 6.52887E-05
 -1        86-4.94310E-03 6.75182E-05 6.75182E-05
 -1        87-4.06032E-03 8.29198E-16 1.06089E-04
 -1        88-3.99644E-03 1.04663E-04 2.06888E-04
 -1        89-3.99644E-03 2.06888E-04 1.04663E-04
 -1        90 0.00000E+00 0.00000E+00 0.00000E+00
 -1        91 0.00000E+00 0.00000E+00 0.00000E+00
 -1        92 0.00000E+00 0.00000E+00 0.00000E+00
 -1        93 0.00000E+00 0.00000E+00 0.00000E+00
 -1        94-2.12683E-03 3.47166E-04-3.47166E-04
 -1        95-2.09666E-03-3.41741E-15-3.48402E-04
 -1        96-2.06606E-03-1.00159E-15-4.25007E-17
 -1        97-2.09666E-03 3.48402E-04-2.36920E-15
 -1        98 0.00000E+00 0.00000E+00 0.00000E+00
 -1        99 0.00000E+00 0.00000E+00 0.00000E+00
 -1       100 0.00000E+00 0.00000E+00 0.00000E+00
 -1       101 0.00000E+00 0.00000E+00 0.00000E+00
 -1       102 0.00000E+00 0.00000E+00 0.00000E+00
 -1       103 0.00000E+00 0.00000E+00 0.00000E+00
 -1       104-2.09666E-03 1.33075E-15 3.48402E-04
 -1       105-2.12683E-03 3.47166E-04 3.47166E-04
 -1       106 0.00000E+00 0.00000E+00 0.00000E+00
 -1       107 0.00000E+00 0.00000E+00 0.00000E+00
 -1       108 0.00000E+00 0.00000E+00 0.00000E+00
 -1       109 5.03546E-03 9.62915E-06 9.62915E-06
 -1       110 5.07174E-03 8.59269E-06 4.66597E-15
 -1       111 2.92120E-03 3.14566E-04 3.14566E-04
 -1       112 2.94518E-03 3.14366E-04 6.08508E-18
 -1       113 5.06443E-03 4.57088E-06 9.23752E-06
 -1       114 5.06443E-03 9.23752E-06 4.57088E-06
 -1       115 5.10101E-03 4.21651E-06 2.30111E-15
 -1       116 4.46964E-03 1.62010E-04 1.62010E-04
 -1       117 4.50943E-03 1.61707E-04 3.35018E-15
 -1       118 2.94010E-03 1.58649E-04 3.14584E-04
 -1       119 2.94010E-03 3.14584E-04 1.58649E-04
 -1       120 2.96408E-03 1.58577E-04-1.84314E-17
 -1       121 5.03546E-03 9.62915E-06-9.62915E-06
 -1       122 2.92120E-03 3.14566E-04-3.14566E-04
 -1       123 5.06443E-03 9.23752E-06-4.57088E-06
 -1       124 5.06443E-03 4.57088E-06-9.23752E-06
 -1       125 4.46964E-03 1.62010E-04-1.62010E-04
 -1       126 2.94010E-03 3.14584E-04-1.58649E-04
 -1       127 2.94010E-03 1.58649E-04-3.14584E-04
 -1       128-1.62924E-03 3.64913E-04 3.64913E-04
 -1       129-1.64276E-03 3.64388E-04-4.31990E-15
 -1       130 7.26491E-04 3.52006E-04 3.52006E-04
 -1       131 7.32965E-04 3.51567E-04-3.20664E-15
 -1       132-1.63970E-03 1.83873E-04 3.64875E-04
 -1       133-1.63970E-03 3.64875E-04 1.83873E-04
 -1       134-1.65304E-03 1.83727E-04-2.14520E-15
 -1       135-1.62924E-03 3.64913E-04-3.64913E-04
 -1       136 7.26491E-04 3.52006E-04-3.52006E-04
 -1       137-1.63970E-03 3.64875E-04-1.83873E-04
 -1       138-1.63970E-03 1.83873E-04-3.64875E-04
 -1       139-4.81136E-03 1.12986E-04 1.12986E-04
 -1       140-4.85528E-03 1.10531E-04 1.95807E-16
 -1       141-3.62500E-03 2.46469E-04 2.46469E-04
 -1       142-3.65735E-03 2.46413E-04-2.83985E-15
 -1       143-4.84494E-03 5.73775E-05 1.11740E-04
 -1       144-4.84494E-03 1.11740E-04 5.73775E-05
 -1       145-4.88837E-03 5.60841E-05 1.22949E-16
 -1       146-4.81136E-03 1.12986E-04-1.12986E-04
 -1       147-3.62500E-03 2.46469E-04-2.46469E-04
 -1       148-4.84494E-03 1.11740E-04-5.73775E-05
 -1       149-4.84494E-03 5.73775E-05-1.11740E-04
 -1       150-3.95808E-03-2.05245E-04-2.05245E-04
 -1       151-4.02133E-03-2.08627E-04 3.68022E-15
 -1       152-4.94310E-03-6.75182E-05-6.75182E-05
 -1       153-4.98396E-03-6.52887E-05 2.85774E-15
 -1       154-3.99644E-03-1.04663E-04-2.06888E-04
 -1       155-3.99644E-03-2.06888E-04-1.04663E-04
 -1       156-4.06032E-03-1.06089E-04 1.80997E-15
 -1       157-3.95808E-03-2.05245E-04 2.05245E-04
 -1       158-4.94310E-03-6.75182E-05 6.75182E-05
 -1       159-3.99644E-03-2.06888E-04 1.04663E-04
 -1       160-3.99644E-03-1.04663E-04 2.06888E-04
 -1       161 0.00000E+00 0.00000E+00 0.00000E+00
 -1       162 0.00000E+00 0.00000E+00 0.00000E+00
 -1       163-2.12683E-03-3.47166E-04-3.47166E-04
 -1       164-2.09666E-03-3.48402E-04 2.33711E-15
 -1       165 0.00000E+00 0.00000E+00 0.00000E+00
 -1       166 0.00000E+00 0.00000E+00 0.00000E+00
 -1       167 0.00000E+00 0.00000E+00 0.00000E+00
 -1       168 0.00000E+00 0.00000E+00 0.00000E+00
 -1       169-2.12683E-03-3.47166E-04 3.47166E-04
 -1       170 0.00000E+00 0.00000E+00 0.00000E+00
 -1       171 0.00000E+00 0.00000E+00 0.00000E+00
 -3
    1PSTEP                        26           1           1          
    1PGM                1.000000E+00                                  
    1PGK                5.778153E+06                                  
    1PHID                         -1                                  
    1PSUBC                         0                                  
    1PMODE                        13                                  
  100CL  113 3.82573E+02         171                     2   13MODAL      1
 -4  STRESS      6    1
 -5  SXX         1    4    1    1
 -5  SYY         1    4    2    2
 -5  SZZ         1    4    3    3
 -5  SXY         1    4    1    2
 -5  SYZ         1    4    2    3
 -5  SZX         1    4    3    1
 -1         1 1.51590E+07 4.41390E+05 4.41390E+05-5.31266E+05 1.63092E+05 5.31266E+05
 -1         2 1.24525E+07 3.61546E+05 2.82249E+05-1.52453E-04-6.99872E-05 5.56826E+05
 -1         3 9.32654E+06-7.26458E+05-7.26458E+05-1.28799E-04-1.06025E-05-6.78771E-06
 -1         4 1.24525E+07 2.82249E+05 3.61546E+05-5.56826E+05-4.92463E-05-8.36821E-05
 -1         5 4.16508E+08 1.87928E+06 1.87928E+06-1.61978E+05-8.46029E+04 1.61978E+05
 -1         6 4.19677E+08-1.52427E+06 1.93341E+06-4.10017E-04-5.03296E-05 1.79213E+05
 -1         7 4.22751E+08-1.63881E+06-1.63881E+06 8.15155E-05 8.99167E-06 1.06677E-05
 -1         8 4.19677E+08 1.93341E+06-1.52427E+06-1.79213E+05 6.53599E-05-4.90301E-04
 -1         9 1.43226E+07 5.97953E+05 5.19350E+05 3.37763E+05 1.75022E+05 5.52236E+05
 -1        10 1.14141E+07-2.16071E+04-2.23013E+04-1.41922E-04-6.20309E-06-2.98323E+05
 -1        11 1.14141E+07-2.23013E+04-2.16071E+04 2.98323E+05-3.51028E-05-3.47153E-05
 -1        12 1.43226E+07 5.19350E+05 5.97953E+05-5.52236E+05 1.75022E+05-3.37763E+05
 -1        13 2.10885E+08-9.20414E+05-9.20414E+05 1.46401E+05-5.76261E+04-1.46401E+05
 -1        14 2.11663E+08-2.46905E+06-8.76726E+05-2.72205E-04-6.39678E-06-1.61577E+05
 -1        15 2.12153E+08-2.98776E+06-2.98776E+06 1.30731E-05-1.89239E-05-3.90282E-07
 -1        16 2.11663E+08-8.76726E+05-2.46905E+06 1.61577E+05 1.70493E-05-2.82487E-04
 -1        17 4.19073E+08 5.69004E+05 2.26135E+06 2.34220E+05 5.24616E+03 1.67761E+05
 -1        18 4.22199E+08-1.22444E+06 5.40897E+05-1.21815E-04-1.32072E-04-2.22478E+05
 -1        19 4.22199E+08 5.40897E+05-1.22444E+06 2.22478E+05 2.33427E-05-1.93852E-04
 -1        20 4.19073E+08 2.26135E+06 5.69004E+05-1.67761E+05 5.24616E+03-2.34220E+05
 -1        21 1.24525E+07 3.61546E+05 2.82249E+05 8.26106E-06 1.47784E-04-5.56826E+05
 -1        22 1.51590E+07 4.41390E+05 4.41390E+05-5.31266E+05-1.63092E+05-5.31266E+05
 -1        23 4.19677E+08-1.52427E+06 1.93341E+06 5.77796E-04-6.43665E-05-1.79213E+05
 -1        24 4.16508E+08 1.87928E+06 1.87928E+06-1.61978E+05 8.46029E+04-1.61978E+05
 -1        25 1.14141E+07-2.16071E+04-2.23013E+04-8.55495E-05 3.64581E-05 2.98323E+05
 -1        26 1.43226E+07 5.97953E+05 5.19350E+05 3.37763E+05-1.75022E+05-5.52236E+05
 -1        27 1.43226E+07 5.19350E+05 5.97953E+05-5.52236E+05-1.75022E+05 3.37763E+05
 -1        28 2.11663E+08-2.46905E+06-8.76726E+05 2.92177E-04-5.99773E-05 1.61577E+05
 -1        29 2.10885E+08-9.20414E+05-9.20414E+05 1.46401E+05 5.76261E+04 1.46401E+05
 -1        30 4.22199E+08-1.22444E+06 5.40897E+05 2.78168E-04 8.16440E-05 2.22478E+05
 -1        31 4.19073E+08 5.69004E+05 2.26135E+06 2.34220E+05-5.24616E+03-1.67761E+05
 -1        32 4.19073E+08 2.26135E+06 5.69004E+05-1.67761E+05-5.24616E+03 2.34220E+05
 -1        33 4.85273E+08 2.69852E+06 2.69852E+06 1.11658E+05-1.14937E+05-1.11658E+05
 -1        34 4.88769E+08-6.56616E+05 3.13575E+06 3.01495E-06-2.08563E-06-1.38399E+05
 -1        35 4.92005E+08-8.60413E+05-8.60413E+05-1.47212E-05 2.94703E-05-9.83745E-06
 -1        36 4.88769E+08 3.13575E+06-6.56616E+05 1.38399E+05 5.80378E-06 2.05121E-05
 -1        37 4.52687E+08-3.96730E+06-3.96730E+06-5.01996E+04-7.60272E+04 5.01996E+04
 -1        38 4.55333E+08-7.63054E+06-3.98177E+06-2.30125E-04 1.71639E-05 4.93149E+04
 -1        39 4.57662E+08-8.10959E+06-8.10959E+06 5.10015E-06 1.79972E-05 6.59060E-06
 -1        40 4.55333E+08-3.98177E+06-7.63054E+06-4.93149E+04 4.65026E-05-2.54378E-04
 -1        41 4.88252E+08 1.50375E+06 3.33087E+06-5.10633E+04 3.40827E+04-1.25632E+05
 -1        42 4.91613E+08-3.46820E+05 1.61842E+06-4.15772E-06-4.26648E-06 7.54970E+04
 -1        43 4.91613E+08 1.61842E+06-3.46820E+05-7.54970E+04 3.39784E-05 9.95220E-07
 -1        44 4.88252E+08 3.33087E+06 1.50375E+06 1.25632E+05 3.40827E+04 5.10633E+04
 -1        45 4.88769E+08-6.56616E+05 3.13575E+06-4.17893E-05-3.37349E-05 1.38399E+05
 -1        46 4.85273E+08 2.69852E+06 2.69852E+06 1.11658E+05 1.14937E+05 1.11658E+05
 -1        47 4.55333E+08-7.63054E+06-3.98177E+06 2.89763E-04-8.92371E-05-4.93149E+04
 -1        48 4.52687E+08-3.96730E+06-3.96730E+06-5.01996E+04 7.60272E+04-5.01996E+04
 -1        49 4.91613E+08-3.46820E+05 1.61842E+06-2.09356E-05 8.77637E-06-7.54970E+04
 -1        50 4.88252E+08 1.50375E+06 3.33087E+06-5.10633E+04-3.40827E+04 1.25632E+05
 -1        51 4.88252E+08 3.33087E+06 1.50375E+06 1.25632E+05-3.40827E+04-5.10633E+04
 -1        52 1.47607E+08 7.21361E+05 7.21361E+05 7.19709E+05 7.78074E+05-7.19709E+05
 -1        53 1.45422E+08-3.03722E+06-1.85304E+05 4.70169E-04-2.51832E-05-7.82213E+05
 -1        54 1.43249E+08-3.63742E+06-3.63742E+06 2.69132E-06 4.31889E-06 3.80150E-06
 -1        55 1.45422E+08-1.85304E+05-3.03722E+06 7.82213E+05 1.83505E-05 4.89075E-04
 -1        56 3.16747E+08-2.46706E+06-2.46706E+06 7.43158E+02-1.09367E+05-7.43158E+02
 -1        57 3.18752E+08-5.63467E+06-2.75347E+06 2.61109E-04 2.07423E-05 1.71397E+04
 -1        58 3.20603E+08-6.10101E+06-6.10101E+06-1.01922E-07 2.73649E-05-4.27374E-06
 -1        59 3.18752E+08-2.75347E+06-5.63467E+06-1.71397E+04 6.81795E-06 2.76126E-04
 -1        60 1.46734E+08-1.06614E+06 3.65499E+05 9.58961E+04 5.82342E+05-7.37638E+05
 -1        61 1.44560E+08-3.23788E+06-1.81760E+06 1.90906E-04-1.43224E-05-8.56874E+04
 -1        62 1.44560E+08-1.81760E+06-3.23788E+06 8.56874E+04 1.36566E-05 2.00725E-04
 -1        63 1.46734E+08 3.65499E+05-1.06614E+06 7.37638E+05 5.82342E+05-9.58961E+04
 -1        64 1.45422E+08-3.03722E+06-1.85304E+05-4.90398E-04-1.76571E-06 7.82213E+05
 -1        65 1.47607E+08 7.21361E+05 7.21361E+05 7.19709E+05-7.78074E+05 7.19709E+05
 -1        66 3.18752E+08-5.63467E+06-2.75347E+06-2.79930E-04-2.77978E-05-1.71397E+04
 -1        67 3.16747E+08-2.46706E+06-2.46706E+06 7.43158E+02 1.09367E+05 7.43158E+02
 -1        68 1.44560E+08-3.23788E+06-1.81760E+06-1.95046E-04 5.84351E-06 8.56874E+04
 -1        69 1.46734E+08-1.06614E+06 3.65499E+05 9.58961E+04-5.82342E+05 7.37638E+05
 -1        70 1.46734E+08 3.65499E+05-1.06614E+06 7.37638E+05-5.82342E+05 9.58961E+04
 -1        71-3.43414E+08-3.45615E+07-3.45615E+07-5.46191E+06 9.82137E+05 5.46191E+06
 -1        72-3.54789E+08-3.16758E+07-3.53312E+07-6.66515E-05-2.66133E-05 5.55556E+06
 -1        73-3.67304E+08-3.41462E+07-3.41462E+07 2.35535E-05 1.81760E-05-1.26540E-05
 -1        74-3.54789E+08-3.53312E+07-3.16758E+07-5.55556E+06-2.92520E-06-1.23884E-04
 -1        75-8.47731E+07 9.31553E+05 9.31553E+05-3.04899E+05-7.03913E+05 3.04899E+05
 -1        76-8.15263E+07 4.11338E+06 2.12764E+06 2.12573E-04-1.62037E-05 3.39597E+05
 -1        77-7.83900E+07 4.80702E+06 4.80702E+06 8.98974E-06 1.51494E-05-8.56922E-06
 -1        78-8.15263E+07 2.12764E+06 4.11338E+06-3.39597E+05 1.54965E-05 1.83322E-04
 -1        79-3.49918E+08-3.34668E+07-3.53092E+07 4.48102E+04 7.25117E+05 5.49447E+06
 -1        80-3.61858E+08-3.32720E+07-3.50850E+07-6.44568E-06 3.40128E-06-5.44385E+04
 -1        81-3.61858E+08-3.50850E+07-3.32720E+07 5.44385E+04 5.21911E-06-5.58875E-05
 -1        82-3.49918E+08-3.53092E+07-3.34668E+07-5.49447E+06 7.25117E+05-4.48102E+04
 -1        83-3.54789E+08-3.16758E+07-3.53312E+07 1.20861E-04 1.63006E-05-5.55556E+06
 -1        84-3.43414E+08-3.45615E+07-3.45615E+07-5.46191E+06-9.82137E+05-5.46191E+06
 -1        85-8.15263E+07 4.11338E+06 2.12764E+06-1.88538E-04-1.01168E-05-3.39597E+05
 -1        86-8.47731E+07 9.31553E+05 9.31553E+05-3.04899E+05 7.03913E+05-3.04899E+05
 -1        87-3.61858E+08-3.32720E+07-3.50850E+07 5.51522E-05 1.14802E-05 5.44385E+04
 -1        88-3.49918E+08-3.34668E+07-3.53092E+07 4.48102E+04-7.25117E+05-5.49447E+06
 -1        89-3.49918E+08-3.53092E+07-3.34668E+07-5.49447E+06-7.25117E+05 4.48102E+04
 -1        90-6.12381E+08-2.62455E+08-2.62455E+08 4.55162E+07-9.94990E+00-4.55162E+07
 -1        91-5.87622E+08-2.51844E+08-2.51844E+08-3.44278E-04-3.31096E-09-4.55763E+07
 -1        92-5.62484E+08-2.41070E+08-2.41070E+08-1.15818E-04 1.32434E-09-5.67050E-06
 -1        93-5.87622E+08-2.51844E+08-2.51844E+08 4.55763E+07 7.96774E-10-2.23507E-04
 -1        94-3.74492E+08 3.55603E+07 3.55603E+07 5.32603E+06 3.51081E+05-5.32603E+06
 -1        95-3.80716E+08 3.67133E+07 3.47456E+07-1.86807E-04-3.54488E-06-5.41622E+06
 -1        96-3.87573E+08 3.50210E+07 3.50210E+07-1.91499E-05 1.17914E-05-5.21797E-06
 -1        97-3.80716E+08 3.47456E+07 3.67133E+07 5.41622E+06 3.16242E-06-1.81279E-04
 -1        98-6.00947E+08-2.57542E+08-2.57542E+08 2.28367E+07 7.98659E+00-4.55447E+07
 -1        99-5.76010E+08-2.46855E+08-2.46855E+08-2.31067E-04 3.10160E-09-2.28566E+07
 -1       100-5.76010E+08-2.46855E+08-2.46855E+08 2.28566E+07-6.32872E-09-1.14661E-04
 -1       101-6.00947E+08-2.57542E+08-2.57542E+08 4.55447E+07 7.98659E+00-2.28367E+07
 -1       102-5.87622E+08-2.51844E+08-2.51844E+08 1.03189E-04-2.26373E-09 4.55763E+07
 -1       103-6.12381E+08-2.62455E+08-2.62455E+08 4.55162E+07 9.94990E+00 4.55162E+07
 -1       104-3.80716E+08 3.67133E+07 3.47456E+07 1.45886E-04 8.11272E-06 5.41622E+06
 -1       105-3.74492E+08 3.55603E+07 3.55603E+07 5.32603E+06-3.51081E+05 5.32603E+06
 -1       106-5.76010E+08-2.46855E+08-2.46855E+08-5.94533E-06-3.25281E-09 2.28566E+07
 -1       107-6.00947E+08-2.57542E+08-2.57542E+08 2.28367E+07-7.98659E+00 4.55447E+07
 -1       108-6.00947E+08-2.57542E+08-2.57542E+08 4.55447E+07-7.98659E+00 2.28367E+07
 -1       109 1.51590E+07 4.41390E+05 4.41390E+05 5.31266E+05-1.63092E+05 5.31266E+05
 -1       110 1.24525E+07 2.82249E+05 3.61546E+05 5.56826E+05-4.28849E-05 6.05637E-05
 -1       111 4.16508E+08 1.87928E+06 1.87928E+06 1.61978E+05 8.46029E+04 1.61978E+05
 -1       112 4.19677E+08 1.93341E+06-1.52427E+06 1.79213E+05-8.29210E-06 5.14823E-04
 -1       113 1.43226E+07 5.97953E+05 5.19350E+05-3.37763E+05-1.75022E+05 5.52236E+05
 -1       114 1.43226E+07 5.19350E+05 5.97953E+05 5.52236E+05-1.75022E+05-3.37763E+05
 -1       115 1.14141E+07-2.23013E+04-2.16071E+04-2.98323E+05-3.24849E-05 2.47131E-05
 -1       116 2.10885E+08-9.20414E+05-9.20414E+05-1.46401E+05 5.76261E+04-1.46401E+05
 -1       117 2.11663E+08-8.76726E+05-2.46905E+06-1.61577E+05-2.48133E-05 2.91048E-04
 -1       118 4.19073E+08 5.69004E+05 2.26135E+06-2.34220E+05-5.24616E+03 1.67761E+05
 -1       119 4.19073E+08 2.26135E+06 5.69004E+05 1.67761E+05-5.24616E+03-2.34220E+05
 -1       120 4.22199E+08 5.40897E+05-1.22444E+06-2.22478E+05 3.09505E-06 2.13890E-04
 -1       121 1.51590E+07 4.41390E+05 4.41390E+05 5.31266E+05 1.63092E+05-5.31266E+05
 -1       122 4.16508E+08 1.87928E+06 1.87928E+06 1.61978E+05-8.46029E+04-1.61978E+05
 -1       123 1.43226E+07 5.19350E+05 5.97953E+05 5.52236E+05 1.75022E+05 3.37763E+05
 -1       124 1.43226E+07 5.97953E+05 5.19350E+05-3.37763E+05 1.75022E+05-5.52236E+05
 -1       125 2.10885E+08-9.20414E+05-9.20414E+05-1.46401E+05-5.76261E+04 1.46401E+05
 -1       126 4.19073E+08 2.26135E+06 5.69004E+05 1.67761E+05 5.24616E+03 2.34220E+05
 -1       127 4.19073E+08 5.69004E+05 2.26135E+06-2.34220E+05 5.24616E+03-1.67761E+05
 -1       128 4.85273E+08 2.69852E+06 2.69852E+06-1.11658E+05 1.14937E+05-1.11658E+05
 -1       129 4.88769E+08 3.13575E+06-6.56616E+05-1.38399E+05 2.07083E-05-1.97819E-05
 -1       130 4.52687E+08-3.96730E+06-3.96730E+06 5.01996E+04 7.60272E+04 5.01996E+04
 -1       131 4.55333E+08-3.98177E+06-7.63054E+06 4.93149E+04-1.28350E-05 2.57314E-04
 -1       132 4.88252E+08 1.50375E+06 3.33087E+06 5.10633E+04-3.40827E+04-1.25632E+05
 -1       133 4.88252E+08 3.33087E+06 1.50375E+06-1.25632E+05-3.40827E+04 5.10633E+04
 -1       134 4.91613E+08 1.61842E+06-3.46820E+05 7.54970E+04 2.43972E-05-1.36051E-05
 -1       135 4.85273E+08 2.69852E+06 2.69852E+06-1.11658E+05-1.14937E+05 1.11658E+05
 -1       136 4.52687E+08-3.96730E+06-3.96730E+06 5.01996E+04-7.60272E+04-5.01996E+04
 -1       137 4.88252E+08 3.33087E+06 1.50375E+06-1.25632E+05 3.40827E+04-5.10633E+04
 -1       138 4.88252E+08 1.50375E+06 3.33087E+06 5.10633E+04 3.40827E+04 1.25632E+05
 -1       139 1.47607E+08 7.21361E+05 7.21361E+05-7.19709E+05-7.78074E+05-7.19709E+05
 -1       140 1.45422E+08-1.85304E+05-3.03722E+06-7.82213E+05 2.28039E-05-4.87181E-04
 -1       141 3.16747E+08-2.46706E+06-2.46706E+06-7.43158E+02 1.09367E+05-7.43158E+02
 -1       142 3.18752E+08-2.75347E+06-5.63467E+06 1.71397E+04 2.66234E-05-2.68604E-04
 -1       143 1.46734E+08-1.06614E+06 3.65499E+05-9.58961E+04-5.82342E+05-7.37638E+05
 -1       144 1.46734E+08 3.65499E+05-1.06614E+06-7.37638E+05-5.82342E+05-9.58961E+04
 -1       145 1.44560E+08-1.81760E+06-3.23788E+06-8.56874E+04 8.28194E-06-1.96431E-04
 -1       146 1.47607E+08 7.21361E+05 7.21361E+05-7.19709E+05 7.78074E+05 7.19709E+05
 -1       147 3.16747E+08-2.46706E+06-2.46706E+06-7.43158E+02-1.09367E+05 7.43158E+02
 -1       148 1.46734E+08 3.65499E+05-1.06614E+06-7.37638E+05 5.82342E+05 9.58961E+04
 -1       149 1.46734E+08-1.06614E+06 3.65499E+05-9.58961E+04 5.82342E+05 7.37638E+05
 -1       150-3.43414E+08-3.45615E+07-3.45615E+07 5.46191E+06-9.82137E+05 5.46191E+06
 -1       151-3.54789E+08-3.53312E+07-3.16758E+07 5.55556E+06-1.97245E-06 1.00119E-04
 -1       152-8.47731E+07 9.31553E+05 9.31553E+05 3.04899E+05 7.03913E+05 3.04899E+05
 -1       153-8.15263E+07 2.12764E+06 4.11338E+06 3.39597E+05 1.44682E-05-2.06422E-04
 -1       154-3.49918E+08-3.34668E+07-3.53092E+07-4.48102E+04-7.25117E+05 5.49447E+06
 -1       155-3.49918E+08-3.53092E+07-3.34668E+07 5.49447E+06-7.25117E+05-4.48102E+04
 -1       156-3.61858E+08-3.50850E+07-3.32720E+07-5.44385E+04 1.17814E-05 2.86123E-05
 -1       157-3.43414E+08-3.45615E+07-3.45615E+07 5.46191E+06 9.82137E+05-5.46191E+06
 -1       158-8.47731E+07 9.31553E+05 9.31553E+05 3.04899E+05-7.03913E+05-3.04899E+05
 -1       159-3.49918E+08-3.53092E+07-3.34668E+07 5.49447E+06 7.25117E+05 4.48102E+04
 -1       160-3.49918E+08-3.34668E+07-3.53092E+07-4.48102E+04 7.25117E+05-5.49447E+06
 -1       161-6.12381E+08-2.62455E+08-2.62455E+08-4.55162E+07 9.94990E+00-4.55162E+07
 -1       162-5.87622E+08-2.51844E+08-2.51844E+08-4.55763E+07-1.75760E-08 2.18091E-04
 -1       163-3.74492E+08 3.55603E+07 3.55603E+07-5.32603E+06-3.51081E+05-5.32603E+06
 -1       164-3.80716E+08 3.47456E+07 3.67133E+07-5.41622E+06-2.53192E-06 1.72443E-04
 -1       165-6.00947E+08-2.57542E+08-2.57542E+08-2.28367E+07-7.98659E+00-4.55447E+07
 -1       166-6.00947E+08-2.57542E+08-2.57542E+08-4.55447E+07-7.98659E+00-2.28367E+07
 -1       167-5.76010E+08-2.46855E+08-2.46855E+08-2.28566E+07-2.66982E-09 1.05344E-04
 -1       168-6.12381E+08-2.62455E+08-2.62455E+08-4.55162E+07-9.94990E+00 4.55162E+07
 -1       169-3.74492E+08 3.55603E+07 3.55603E+07-5.32603E+06 3.51081E+05 5.32603E+06
 -1       170-6.00947E+08-2.57542E+08-2.57542E+08-4.55447E+07 7.98659E+00 2.28367E+07
 -1       171-6.00947E+08-2.57542E+08-2.57542E+08-2.28367E+07 7.98659E+00 4.55447E+07
 -3
    1PSTEP                        27           1           1          
    1PGM                1.000000E+00                                  
    1PGK                6.875661E+06                                  
    1PHID                         -1                                  
    1PSUBC                         0                                  
    1PMODE                        14                                  
  100CL  114 4.17328E+02         171                     2   14MODAL      1
 -4  DISP        4    1
 -5  D1          1    2    1    0
 -5  D2          1    2    2    0
 -5  D3          1    2    3    0
 -5  ALL         1    2    0    0    1ALL
 -1         1 6.35742E-03-7.17254E-03 1.70634E-03
 -1         2 1.13009E-03-6.97607E-03 1.55044E-03
 -1         3-1.11499E-15-7.08872E-03 1.51495E-03
 -1         4 5.28789E-03-7.25478E-03 1.49087E-03
 -1         5-1.43042E-03 3.98519E-03-3.66880E-04
 -1         6-2.61119E-04 4.36292E-03-8.21264E-04
 -1         7-6.37945E-16 4.11778E-03-8.80021E-04
 -1         8-1.22182E-03 3.84284E-03-9.32411E-04
 -1         9 3.53155E-03-7.02762E-03 1.61765E-03
 -1        10 5.24984E-04-7.07167E-03 1.52288E-03
 -1        11 2.45650E-03-7.12584E-03 1.51130E-03
 -1        12 5.81984E-03-7.26398E-03 1.59250E-03
 -1        13 3.31520E-03 2.21316E-03 3.48646E-05
 -1        14 5.89705E-04 2.51145E-03-4.39050E-04
 -1        15-9.91828E-16 2.25724E-03-4.82402E-04
 -1        16 2.75934E-03 2.05439E-03-5.36728E-04
 -1        17-6.74502E-04 4.23646E-03-5.78499E-04
 -1        18-9.85942E-05 4.17771E-03-8.64480E-04
 -1        19-4.61340E-04 4.04506E-03-8.92830E-04
 -1        20-1.32503E-03 3.85214E-03-6.63123E-04
 -1        21-1.13009E-03-6.97607E-03 1.55044E-03
 -1        22 4.11857E-03-7.09484E-03 1.34278E-03
 -1        23 2.61119E-04 4.36292E-03-8.21264E-04
 -1        24-9.26678E-04 4.20232E-03-1.38289E-03
 -1        25-5.24984E-04-7.07167E-03 1.52288E-03
 -1        26 1.26298E-03-6.98703E-03 1.48091E-03
 -1        27 4.79519E-03-7.23476E-03 1.40260E-03
 -1        28-5.89705E-04 2.51145E-03-4.39050E-04
 -1        29 2.14771E-03 2.44062E-03-1.02944E-03
 -1        30 9.85942E-05 4.17771E-03-8.64480E-04
 -1        31-1.45610E-04 4.34497E-03-1.09143E-03
 -1        32-1.14976E-03 3.96176E-03-1.17084E-03
 -1        33 5.49686E-04-4.72528E-03 5.39600E-04
 -1        34 9.95088E-05-5.07181E-03 9.80545E-04
 -1        35 3.48625E-16-4.84255E-03 1.03491E-03
 -1        36 4.65620E-04-4.58815E-03 1.08391E-03
 -1        37-2.34089E-03-1.69463E-03 2.14207E-04
 -1        38-4.28082E-04-1.77395E-03 3.52469E-04
 -1        39-1.55908E-16-1.70434E-03 3.64238E-04
 -1        40-2.00307E-03-1.64927E-03 3.79116E-04
 -1        41 2.75472E-04-4.97503E-03 7.46019E-04
 -1        42 4.05769E-05-4.88367E-03 1.02485E-03
 -1        43 1.89867E-04-4.79545E-03 1.04370E-03
 -1        44 5.07538E-04-4.58145E-03 8.28181E-04
 -1        45-9.95088E-05-5.07181E-03 9.80545E-04
 -1        46 3.56107E-04-4.93590E-03 1.52511E-03
 -1        47 4.28082E-04-1.77395E-03 3.52469E-04
 -1        48-1.51652E-03-1.76089E-03 5.24280E-04
 -1        49-4.05769E-05-4.88367E-03 1.02485E-03
 -1        50 7.45232E-05-5.08031E-03 1.23452E-03
 -1        51 4.32739E-04-4.68585E-03 1.32077E-03
 -1        52 7.33390E-04 4.58751E-03-5.13065E-04
 -1        53 1.35861E-04 4.93171E-03-9.50678E-04
 -1        54 1.03997E-15 4.70126E-03-1.00472E-03
 -1        55 6.35720E-04 4.44840E-03-1.05397E-03
 -1        56 2.53446E-03-2.10404E-04 3.00727E-05
 -1        57 4.62316E-04-2.21437E-04 4.39461E-05
 -1        58 7.70000E-16-2.14829E-04 4.59117E-05
 -1        59 2.16326E-03-2.05632E-04 4.73239E-05
 -1        60 3.97397E-04 4.83408E-03-7.17076E-04
 -1        61 6.10071E-05 4.74459E-03-9.94379E-04
 -1        62 2.85463E-04 4.65288E-03-1.01398E-03
 -1        63 6.84347E-04 4.44506E-03-7.99493E-04
 -1        64-1.35861E-04 4.93171E-03-9.50678E-04
 -1        65 4.75117E-04 4.79682E-03-1.49248E-03
 -1        66-4.62316E-04-2.21437E-04 4.39461E-05
 -1        67 1.64192E-03-2.17074E-04 6.12847E-05
 -1        68-6.10071E-05 4.74459E-03-9.94379E-04
 -1        69 1.28928E-04 4.93871E-03-1.20515E-03
 -1        70 5.71865E-04 4.54937E-03-1.28907E-03
 -1        71-2.28623E-03-4.41511E-03 4.93640E-04
 -1        72-4.06513E-04-4.77183E-03 9.18500E-04
 -1        73 9.09212E-16-4.56601E-03 9.75814E-04
 -1        74-1.90215E-03-4.29783E-03 1.01980E-03
 -1        75-2.49604E-03 1.82165E-03-1.71070E-04
 -1        76-4.56749E-04 1.97515E-03-3.76024E-04
 -1        77 1.09223E-15 1.86972E-03-3.99582E-04
 -1        78-2.13721E-03 1.75948E-03-4.22113E-04
 -1        79-1.29378E-03-4.63621E-03 6.95938E-04
 -1        80-1.93998E-04-4.62744E-03 9.56823E-04
 -1        81-9.07751E-04-4.47715E-03 9.88942E-04
 -1        82-2.09768E-03-4.31549E-03 7.66245E-04
 -1        83 4.06513E-04-4.77183E-03 9.18500E-04
 -1        84-1.48110E-03-4.61663E-03 1.43656E-03
 -1        85 4.56749E-04 1.97515E-03-3.76024E-04
 -1        86-1.61703E-03 1.91939E-03-6.28437E-04
 -1        87 1.93998E-04-4.62744E-03 9.56823E-04
 -1        88-4.78107E-04-4.73680E-03 1.17028E-03
 -1        89-1.71901E-03-4.41686E-03 1.23688E-03
 -1        90 0.00000E+00 0.00000E+00 0.00000E+00
 -1        91 0.00000E+00 0.00000E+00 0.00000E+00
 -1        92 0.00000E+00 0.00000E+00 0.00000E+00
 -1        93 0.00000E+00 0.00000E+00 0.00000E+00
 -1        94 7.76188E-04-4.66933E-03 8.76772E-04
 -1        95 1.46784E-04-4.74532E-03 9.88654E-04
 -1        96 4.68375E-16-4.67546E-03 9.99205E-04
 -1        97 6.86830E-04-4.62609E-03 1.01414E-03
 -1        98 0.00000E+00 0.00000E+00 0.00000E+00
 -1        99 0.00000E+00 0.00000E+00 0.00000E+00
 -1       100 0.00000E+00 0.00000E+00 0.00000E+00
 -1       101 0.00000E+00 0.00000E+00 0.00000E+00
 -1       102 0.00000E+00 0.00000E+00 0.00000E+00
 -1       103 0.00000E+00 0.00000E+00 0.00000E+00
 -1       104-1.46784E-04-4.74532E-03 9.88654E-04
 -1       105 5.02843E-04-4.72358E-03 1.13061E-03
 -1       106 0.00000E+00 0.00000E+00 0.00000E+00
 -1       107 0.00000E+00 0.00000E+00 0.00000E+00
 -1       108 0.00000E+00 0.00000E+00 0.00000E+00
 -1       109-4.11857E-03-7.09484E-03 1.34278E-03
 -1       110-5.28789E-03-7.25478E-03 1.49087E-03
 -1       111 9.26678E-04 4.20232E-03-1.38289E-03
 -1       112 1.22182E-03 3.84284E-03-9.32411E-04
 -1       113-1.26298E-03-6.98703E-03 1.48091E-03
 -1       114-4.79519E-03-7.23476E-03 1.40260E-03
 -1       115-2.45650E-03-7.12584E-03 1.51130E-03
 -1       116-2.14771E-03 2.44062E-03-1.02944E-03
 -1       117-2.75934E-03 2.05439E-03-5.36728E-04
 -1       118 1.45610E-04 4.34497E-03-1.09143E-03
 -1       119 1.14976E-03 3.96176E-03-1.17084E-03
 -1       120 4.61340E-04 4.04506E-03-8.92830E-04
 -1       121-6.35742E-03-7.17254E-03 1.70634E-03
 -1       122 1.43042E-03 3.98519E-03-3.66880E-04
 -1       123-5.81984E-03-7.26398E-03 1.59250E-03
 -1       124-3.53155E-03-7.02762E-03 1.61765E-03
 -1       125-3.31520E-03 2.21316E-03 3.48646E-05
 -1       126 1.32503E-03 3.85214E-03-6.63123E-04
 -1       127 6.74502E-04 4.23646E-03-5.78499E-04
 -1       128-3.56107E-04-4.93590E-03 1.52511E-03
 -1       129-4.65620E-04-4.58815E-03 1.08391E-03
 -1       130 1.51652E-03-1.76089E-03 5.24280E-04
 -1       131 2.00307E-03-1.64927E-03 3.79116E-04
 -1       132-7.45232E-05-5.08031E-03 1.23452E-03
 -1       133-4.32739E-04-4.68585E-03 1.32077E-03
 -1       134-1.89867E-04-4.79545E-03 1.04370E-03
 -1       135-5.49686E-04-4.72528E-03 5.39600E-04
 -1       136 2.34089E-03-1.69463E-03 2.14207E-04
 -1       137-5.07538E-04-4.58145E-03 8.28181E-04
 -1       138-2.75472E-04-4.97503E-03 7.46019E-04
 -1       139-4.75117E-04 4.79682E-03-1.49248E-03
 -1       140-6.35720E-04 4.44840E-03-1.05397E-03
 -1       141-1.64192E-03-2.17074E-04 6.12847E-05
 -1       142-2.16326E-03-2.05632E-04 4.73239E-05
 -1       143-1.28928E-04 4.93871E-03-1.20515E-03
 -1       144-5.71865E-04 4.54937E-03-1.28907E-03
 -1       145-2.85463E-04 4.65288E-03-1.01398E-03
 -1       146-7.33390E-04 4.58751E-03-5.13065E-04
 -1       147-2.53446E-03-2.10404E-04 3.00727E-05
 -1       148-6.84347E-04 4.44506E-03-7.99493E-04
 -1       149-3.97397E-04 4.83408E-03-7.17076E-04
 -1       150 1.48110E-03-4.61663E-03 1.43656E-03
 -1       151 1.90215E-03-4.29783E-03 1.01980E-03
 -1       152 1.61703E-03 1.91939E-03-6.28437E-04
 -1       153 2.13721E-03 1.75948E-03-4.22113E-04
 -1       154 4.78107E-04-4.73680E-03 1.17028E-03
 -1       155 1.71901E-03-4.41686E-03 1.23688E-03
 -1       156 9.07751E-04-4.47715E-03 9.88942E-04
 -1       157 2.28623E-03-4.41511E-03 4.93640E-04
 -1       158 2.49604E-03 1.82165E-03-1.71070E-04
 -1       159 2.09768E-03-4.31549E-03 7.66245E-04
 -1       160 1.29378E-03-4.63621E-03 6.95938E-04
 -1       161 0.00000E+00 0.00000E+00 0.00000E+00
 -1       162 0.00000E+00 0.00000E+00 0.00000E+00
 -1       163-5.02843E-04-4.72358E-03 1.13061E-03
 -1       164-6.86830E-04-4.62609E-03 1.01414E-03
 -1       165 0.00000E+00 0.00000E+00 0.00000E+00
 -1       166 0.00000E+00 0.00000E+00 0.00000E+00
 -1       167 0.00000E+00 0.00000E+00 0.00000E+00
 -1       168 0.00000E+00 0.00000E+00 0.00000E+00
 -1       169-7.76188E-04-4.66933E-03 8.76772E-04
 -1       170 0.00000E+00 0.00000E+00 0.00000E+00
 -1       171 0.00000E+00 0.00000E+00 0.00000E+00
 -3
    1PSTEP                        28           1           1          
    1PGM                1.000000E+00                                  
    1PGK                6.875661E+06                                  
    1PHID                         -1                                  
    1PSUBC                         0                                  
    1PMODE                        14                                  
  100CL  114 4.17328E+02         171                     2   14MODAL      1
 -4  STRESS      6    1
 -5  SXX         1    4    1    1
 -5  SYY         1    4    2    2
 -5  SZZ         1    4    3    3
 -5  SXY         1    4    1    2
 -5  SYZ         1    4    2    3
 -5  SZX         1    4    3    1
 -1         1 4.45945E+08-8.95455E+06 3.51514E+07-8.00158E+07-1.30324E+07 1.11397E+07
 -1         2 7.66829E+07 4.40871E+06-5.56487E+06-3.54108E+08-2.73882E+07 1.63433E+07
 -1         3-8.43452E-06-2.99104E-05 4.74649E-06-3.08651E+08 8.10204E-06 6.59627E+07
 -1         4 3.58813E+08-2.60390E+07 2.06291E+07-7.64734E+07-5.85320E+06 7.56774E+07
 -1         5 8.44164E+08 4.33415E+06 6.77292E+06 6.23725E+07 3.46737E+05-3.46747E+06
 -1         6 1.53297E+08 2.98513E+06 1.24269E+06 2.95239E+08 3.41086E+06-1.20021E+07
 -1         7-6.89505E-05 6.22724E-05 2.15184E-05 2.52003E+08-5.28918E-06-5.38562E+07
 -1         8 7.17303E+08 5.81476E+06 1.39680E+07 5.61598E+07 7.28944E+05-6.30963E+07
 -1         9 2.17896E+08-1.12019E+07 6.73206E+06-2.15560E+08-1.86957E+07 1.65396E+07
 -1        10 3.01939E+07 1.07348E+06-4.81631E+06-3.23627E+08-9.65140E+06 4.13089E+07
 -1        11 1.41283E+08-2.25364E+07 5.02300E+06-1.93292E+08-2.06262E+06 6.91633E+07
 -1        12 4.00140E+08-2.28682E+07 2.69917E+07-7.20739E+07-1.22231E+06 3.38143E+07
 -1        13 7.88251E+08 3.02507E+07 1.24260E+06 2.75905E+06 1.24728E+07-6.30557E+06
 -1        14 1.39732E+08-2.79501E+06 4.82116E+06-2.89740E+07 5.23500E+06-1.99484E+06
 -1        15-4.72423E-05 2.13319E-06-6.08852E-07-1.81613E+07 6.05313E-06 3.88130E+06
 -1        16 6.53832E+08 2.25591E+07-1.30783E+07 9.33424E+06 1.11878E+06 6.19211E+06
 -1        17 4.84990E+08-6.84208E+06-4.14254E+06 1.79443E+08 2.14769E+06-1.10094E+07
 -1        18 7.40566E+07-7.48513E+04-1.30846E+06 2.65732E+08 2.09771E+06-3.34478E+07
 -1        19 3.46524E+08-6.12251E+06-3.50243E+05 1.56508E+08 4.48307E+05-5.67902E+07
 -1        20 7.80255E+08 4.92152E+06 9.33708E+06 5.21053E+07 1.68516E+05-2.55962E+07
 -1        21-7.66829E+07-4.40871E+06 5.56487E+06-3.54108E+08 2.73882E+07 1.63433E+07
 -1        22 2.88899E+08-2.55553E+07 4.25266E+07-8.26855E+07 8.44287E+06 2.36316E+07
 -1        23-1.53297E+08-2.98513E+06-1.24269E+06 2.95239E+08-3.41086E+06-1.20021E+07
 -1        24 5.46880E+08 1.71554E+06 5.48003E+06 6.67896E+07-2.24629E+05-2.41361E+07
 -1        25-3.01939E+07-1.07348E+06 4.81631E+06-3.23627E+08 9.65140E+06 4.13089E+07
 -1        26 5.95376E+07-2.43632E+07 1.76187E+07-2.21048E+08 1.99378E+07 1.41578E+07
 -1        27 3.40849E+08-2.80723E+07 3.45924E+07-7.15649E+07-7.03415E+06 5.94944E+07
 -1        28-1.39732E+08 2.79501E+06-4.82116E+06-2.89740E+07-5.23500E+06-1.99484E+06
 -1        29 5.10658E+08 3.25897E+07-1.21872E+07 1.98994E+05-8.08035E+06 5.67340E+06
 -1        30-7.40566E+07 7.48513E+04 1.30846E+06 2.65732E+08-2.09771E+06-3.34478E+07
 -1        31 1.81951E+08-1.16789E+07-6.74331E+06 1.85155E+08-2.27779E+06-1.12738E+07
 -1        32 6.37721E+08 7.24796E+06 1.32952E+07 5.21618E+07 7.77265E+05-5.23229E+07
 -1        33-8.75613E+08-8.01636E+06-2.10825E+07-3.09859E+06 8.22602E+06-1.65152E+06
 -1        34-1.60370E+08-6.27259E+06-8.55765E+05-7.04719E+07 6.00833E+06 2.87068E+05
 -1        35-1.20179E-04-4.66136E-05-1.72709E-05-5.81498E+07-8.23289E-07 1.24273E+07
 -1        36-7.50398E+08-4.00428E+06-2.93506E+07-1.34324E+06 1.28406E+06 1.50607E+07
 -1        37-2.02338E+08-1.69459E+07 2.53826E+06 3.16205E+06-1.06397E+07 1.74082E+07
 -1        38-3.66644E+07 1.28028E+06-3.28282E+06 1.05469E+08-8.38319E+06 3.56900E+06
 -1        39-8.55909E-05 2.82852E-05 1.49235E-05 6.92766E+07-3.61633E-06-1.48053E+07
 -1        40-1.71559E+08-1.53609E+07 5.99067E+06-1.67000E+07-1.79159E+06-2.25400E+07
 -1        41-5.11803E+08-1.89195E+07-1.33071E+07-3.65107E+07 5.56770E+06 2.83834E+05
 -1        42-7.93000E+07-3.88687E+06-3.20815E+06-6.24586E+07-1.96598E+06 6.41186E+06
 -1        43-3.71059E+08-1.50115E+07-1.81874E+07-3.00022E+07-4.20155E+05 1.33482E+07
 -1        44-8.14111E+08-6.62130E+06-2.84940E+07-6.14795E+05-1.44453E+03 4.38357E+06
 -1        45 1.60370E+08 6.27259E+06 8.55765E+05-7.04719E+07-6.00833E+06 2.87068E+05
 -1        46-5.67254E+08 6.58782E+05-1.95101E+07-4.13487E+06-5.32912E+06 3.19740E+06
 -1        47 3.66644E+07-1.28028E+06 3.28282E+06 1.05469E+08 8.38319E+06 3.56900E+06
 -1        48-1.31082E+08-1.97048E+07 1.03710E+07 1.12615E+07 6.89279E+06-2.04906E+07
 -1        49 7.93000E+07 3.88687E+06 3.20815E+06-6.24586E+07 1.96598E+06 6.41186E+06
 -1        50-1.96167E+08-7.96850E+06-1.16153E+07-3.80421E+07-6.10128E+06-3.56469E+04
 -1        51-6.62809E+08-1.29506E+06-2.27477E+07-5.46518E+05 2.49525E+06 1.15493E+07
 -1        52 8.75746E+08 1.33336E+07 2.47998E+07-3.55089E+07-8.03826E+06-5.65441E+05
 -1        53 1.61375E+08 7.25687E+06 2.28489E+06-9.42151E+07-4.86608E+06 5.94969E+06
 -1        54-2.72868E-05 1.60085E-05 1.45230E-05-7.71649E+07-2.74112E-06 1.64911E+07
 -1        55 7.55102E+08 1.06914E+07 3.39562E+07-2.78397E+07-1.03994E+06 2.01350E+07
 -1        56-1.70632E+07 1.70595E+06 2.65325E+06-1.28270E+07-8.97693E+05-1.67193E+07
 -1        57-3.47026E+06 3.49898E+05 2.00450E+05-9.13164E+07-4.86927E+05-1.80085E+06
 -1        58-7.33945E-05-1.69023E-05 2.72854E-06-5.74471E+07-5.74280E-06 1.22772E+07
 -1        59-1.62380E+07 9.37941E+05 1.63724E+06 8.42652E+06-1.04062E+05 1.95155E+07
 -1        60 5.18574E+08 2.31809E+07 1.76393E+07-6.54950E+07-5.10380E+06 3.36028E+06
 -1        61 8.09507E+07 4.65415E+06 4.06513E+06-8.38256E+07 1.95382E+06 1.13638E+07
 -1        62 3.78783E+08 1.90215E+07 2.17776E+07-5.31735E+07 4.17555E+05 1.79146E+07
 -1        63 8.16866E+08 1.30151E+07 3.26006E+07-2.99823E+07-7.00255E+05 9.83984E+06
 -1        64-1.61375E+08-7.25687E+06-2.28489E+06-9.42151E+07 4.86608E+06 5.94969E+06
 -1        65 5.67341E+08 3.50251E+06 2.12017E+07-3.91610E+07 5.20748E+06 1.65233E+07
 -1        66 3.47026E+06-3.49898E+05-2.00450E+05-9.13164E+07 4.86927E+05-1.80085E+06
 -1        67-1.10542E+07 6.80892E+05 2.14316E+06-2.15430E+07 5.81558E+05 2.40646E+07
 -1        68-8.09507E+07-4.65415E+06-4.06513E+06-8.38256E+07-1.95382E+06 1.13638E+07
 -1        69 2.02352E+08 1.07986E+07 1.34985E+07-6.73569E+07 5.27869E+06 9.74660E+06
 -1        70 6.62795E+08 6.36056E+06 2.53387E+07-3.13472E+07-1.51861E+06 1.85523E+07
 -1        71-6.78367E+08 1.56289E+07 2.68824E+07 8.95342E+07-1.58663E+07-1.37945E+07
 -1        72-1.26315E+08 2.65674E+06 1.29450E+06 1.66720E+08-1.62246E+07-1.84549E+07
 -1        73 7.41780E-05 2.14390E-06 2.72132E-06 1.47091E+08-1.41910E-07-3.14352E+07
 -1        74-5.91052E+08 6.05721E+06 1.24314E+07 8.63538E+07-3.46739E+06-3.56301E+07
 -1        75 2.95519E+08-3.52123E+06-1.79818E+07 2.77943E+07 1.07136E+07 1.53476E+07
 -1        76 5.30276E+07-3.77794E+06-2.59630E+05 6.20358E+07 8.90748E+06-9.04768E+05
 -1        77 1.62018E-05 5.21261E-06 4.73857E-06 3.09985E+07-3.62704E-06-6.62477E+06
 -1        78 2.48126E+08-1.21486E+06-1.76777E+07 4.23357E+06 1.90364E+06-1.32578E+07
 -1        79-3.94704E+08 3.13412E+07 2.35458E+07 1.28846E+08-1.55185E+07-1.72654E+07
 -1        80-6.14005E+07 3.44626E+06 5.53936E+06 1.53146E+08-4.98097E+06-2.52653E+07
 -1        81-2.87304E+08 2.59197E+07 1.61257E+07 1.18221E+08-1.06450E+06-3.27292E+07
 -1        82-6.32733E+08 1.26717E+07 2.44469E+07 8.45788E+07-5.43052E+06-2.16919E+07
 -1        83 1.26315E+08-2.65674E+06-1.29450E+06 1.66720E+08 1.62246E+07-1.84549E+07
 -1        84-4.39471E+08 5.08477E+06 2.24557E+07 9.19260E+07 1.02788E+07-2.49859E+07
 -1        85-5.30276E+07 3.77794E+06 2.59630E+05 6.20358E+07-8.90748E+06-9.04768E+05
 -1        86 1.91448E+08 4.19541E+06-1.81258E+07 3.73286E+07-6.94063E+06-2.92651E+07
 -1        87 6.14005E+07-3.44626E+06-5.53936E+06 1.53146E+08 4.98097E+06-2.52653E+07
 -1        88-1.49095E+08 2.33918E+07 2.01241E+07 1.31463E+08 1.45717E+07-1.89632E+07
 -1        89-5.16516E+08 3.33887E+06 1.27498E+07 8.49416E+07-1.00014E+06-3.39393E+07
 -1        90 7.25718E+08 3.11019E+08 3.11019E+08-5.48541E+08 7.27763E+01 1.15901E+08
 -1        91 1.33762E+08 5.73261E+07 5.73262E+07-5.46512E+08 6.64328E+01 1.16772E+08
 -1        92 1.29845E-04 5.57507E-05 5.56045E-05-5.43680E+08-5.68616E-08 1.16191E+08
 -1        93 6.25898E+08 2.68240E+08 2.68239E+08-5.46400E+08 1.41975E+01 1.16796E+08
 -1        94-2.34410E+08-8.85540E+06-1.04129E+07-8.91696E+07 5.16586E+06 4.16657E+06
 -1        95-4.16086E+07-2.04508E+06-1.14224E+06-6.79546E+07 3.54286E+06 1.55951E+07
 -1        96 8.55103E-05-1.00471E-05-7.96095E-06-5.66256E+07-2.62284E-07 1.21016E+07
 -1        97-1.94694E+08-5.34474E+06-9.56930E+06-7.29721E+07 7.57154E+05 1.45227E+07
 -1        98 4.36812E+08 1.87208E+08 1.87208E+08-5.49186E+08 4.09227E+01 1.15950E+08
 -1        99 6.81262E+07 2.91974E+07 2.91974E+07-5.43516E+08 1.54603E+00 1.16857E+08
 -1       100 3.18775E+08 1.36620E+08 1.36620E+08-5.46795E+08 3.30407E-01 1.16156E+08
 -1       101 6.75330E+08 2.89429E+08 2.89429E+08-5.45910E+08 2.78556E+00 1.16718E+08
 -1       102-1.33762E+08-5.73261E+07-5.73262E+07-5.46512E+08-6.64328E+01 1.16772E+08
 -1       103 4.70147E+08 2.01490E+08 2.01490E+08-5.49136E+08-4.71472E+01 1.18687E+08
 -1       104 4.16086E+07 2.04508E+06 1.14224E+06-6.79546E+07-3.54286E+06 1.55951E+07
 -1       105-1.51859E+08-5.03929E+06-7.44341E+06-9.58386E+07-3.34663E+06 3.53720E+07
 -1       106-6.81262E+07-2.91974E+07-2.91974E+07-5.43516E+08-1.54603E+00 1.16857E+08
 -1       107 1.76155E+08 7.54968E+07 7.54968E+07-5.49477E+08-4.35921E+01 1.17454E+08
 -1       108 5.44331E+08 2.33286E+08 2.33286E+08-5.46231E+08 1.52763E+01 1.18080E+08
 -1       109-2.88899E+08 2.55553E+07-4.25266E+07-8.26855E+07-8.44287E+06 2.36316E+07
 -1       110-3.58813E+08 2.60390E+07-2.06291E+07-7.64734E+07 5.85320E+06 7.56774E+07
 -1       111-5.46880E+08-1.71554E+06-5.48003E+06 6.67896E+07 2.24629E+05-2.41361E+07
 -1       112-7.17303E+08-5.81476E+06-1.39680E+07 5.61598E+07-7.28944E+05-6.30963E+07
 -1       113-5.95376E+07 2.43632E+07-1.76187E+07-2.21048E+08-1.99378E+07 1.41578E+07
 -1       114-3.40849E+08 2.80723E+07-3.45924E+07-7.15649E+07 7.03415E+06 5.94944E+07
 -1       115-1.41283E+08 2.25364E+07-5.02300E+06-1.93292E+08 2.06262E+06 6.91633E+07
 -1       116-5.10658E+08-3.25897E+07 1.21872E+07 1.98994E+05 8.08035E+06 5.67340E+06
 -1       117-6.53832E+08-2.25591E+07 1.30783E+07 9.33424E+06-1.11878E+06 6.19211E+06
 -1       118-1.81951E+08 1.16789E+07 6.74331E+06 1.85155E+08 2.27779E+06-1.12738E+07
 -1       119-6.37721E+08-7.24796E+06-1.32952E+07 5.21618E+07-7.77265E+05-5.23229E+07
 -1       120-3.46524E+08 6.12251E+06 3.50243E+05 1.56508E+08-4.48307E+05-5.67902E+07
 -1       121-4.45945E+08 8.95455E+06-3.51514E+07-8.00158E+07 1.30324E+07 1.11397E+07
 -1       122-8.44164E+08-4.33415E+06-6.77292E+06 6.23725E+07-3.46737E+05-3.46747E+06
 -1       123-4.00140E+08 2.28682E+07-2.69917E+07-7.20739E+07 1.22231E+06 3.38143E+07
 -1       124-2.17896E+08 1.12019E+07-6.73206E+06-2.15560E+08 1.86957E+07 1.65396E+07
 -1       125-7.88251E+08-3.02507E+07-1.24260E+06 2.75905E+06-1.24728E+07-6.30557E+06
 -1       126-7.80255E+08-4.92152E+06-9.33708E+06 5.21053E+07-1.68516E+05-2.55962E+07
 -1       127-4.84990E+08 6.84208E+06 4.14254E+06 1.79443E+08-2.14769E+06-1.10094E+07
 -1       128 5.67254E+08-6.58782E+05 1.95101E+07-4.13487E+06 5.32912E+06 3.19740E+06
 -1       129 7.50398E+08 4.00428E+06 2.93506E+07-1.34324E+06-1.28406E+06 1.50607E+07
 -1       130 1.31082E+08 1.97048E+07-1.03710E+07 1.12615E+07-6.89279E+06-2.04906E+07
 -1       131 1.71559E+08 1.53609E+07-5.99067E+06-1.67000E+07 1.79159E+06-2.25400E+07
 -1       132 1.96167E+08 7.96850E+06 1.16153E+07-3.80421E+07 6.10128E+06-3.56469E+04
 -1       133 6.62809E+08 1.29506E+06 2.27477E+07-5.46518E+05-2.49525E+06 1.15493E+07
 -1       134 3.71059E+08 1.50115E+07 1.81874E+07-3.00022E+07 4.20155E+05 1.33482E+07
 -1       135 8.75613E+08 8.01636E+06 2.10825E+07-3.09859E+06-8.22602E+06-1.65152E+06
 -1       136 2.02338E+08 1.69459E+07-2.53826E+06 3.16205E+06 1.06397E+07 1.74082E+07
 -1       137 8.14111E+08 6.62130E+06 2.84940E+07-6.14795E+05 1.44453E+03 4.38357E+06
 -1       138 5.11803E+08 1.89195E+07 1.33071E+07-3.65107E+07-5.56770E+06 2.83834E+05
 -1       139-5.67341E+08-3.50251E+06-2.12017E+07-3.91610E+07-5.20748E+06 1.65233E+07
 -1       140-7.55102E+08-1.06914E+07-3.39562E+07-2.78397E+07 1.03994E+06 2.01350E+07
 -1       141 1.10542E+07-6.80892E+05-2.14316E+06-2.15430E+07-5.81558E+05 2.40646E+07
 -1       142 1.62380E+07-9.37941E+05-1.63724E+06 8.42652E+06 1.04062E+05 1.95155E+07
 -1       143-2.02352E+08-1.07986E+07-1.34985E+07-6.73569E+07-5.27869E+06 9.74660E+06
 -1       144-6.62795E+08-6.36056E+06-2.53387E+07-3.13472E+07 1.51861E+06 1.85523E+07
 -1       145-3.78783E+08-1.90215E+07-2.17776E+07-5.31735E+07-4.17555E+05 1.79146E+07
 -1       146-8.75746E+08-1.33336E+07-2.47998E+07-3.55089E+07 8.03826E+06-5.65441E+05
 -1       147 1.70632E+07-1.70595E+06-2.65325E+06-1.28270E+07 8.97693E+05-1.67193E+07
 -1       148-8.16866E+08-1.30151E+07-3.26006E+07-2.99823E+07 7.00255E+05 9.83984E+06
 -1       149-5.18574E+08-2.31809E+07-1.76393E+07-6.54950E+07 5.10380E+06 3.36028E+06
 -1       150 4.39471E+08-5.08477E+06-2.24557E+07 9.19260E+07-1.02788E+07-2.49859E+07
 -1       151 5.91052E+08-6.05721E+06-1.24314E+07 8.63538E+07 3.46739E+06-3.56301E+07
 -1       152-1.91448E+08-4.19541E+06 1.81258E+07 3.73286E+07 6.94063E+06-2.92651E+07
 -1       153-2.48126E+08 1.21486E+06 1.76777E+07 4.23357E+06-1.90364E+06-1.32578E+07
 -1       154 1.49095E+08-2.33918E+07-2.01241E+07 1.31463E+08-1.45717E+07-1.89632E+07
 -1       155 5.16516E+08-3.33887E+06-1.27498E+07 8.49416E+07 1.00014E+06-3.39393E+07
 -1       156 2.87304E+08-2.59197E+07-1.61257E+07 1.18221E+08 1.06450E+06-3.27292E+07
 -1       157 6.78367E+08-1.56289E+07-2.68824E+07 8.95342E+07 1.58663E+07-1.37945E+07
 -1       158-2.95519E+08 3.52123E+06 1.79818E+07 2.77943E+07-1.07136E+07 1.53476E+07
 -1       159 6.32733E+08-1.26717E+07-2.44469E+07 8.45788E+07 5.43052E+06-2.16919E+07
 -1       160 3.94704E+08-3.13412E+07-2.35458E+07 1.28846E+08 1.55185E+07-1.72654E+07
 -1       161-4.70147E+08-2.01490E+08-2.01490E+08-5.49136E+08 4.71472E+01 1.18687E+08
 -1       162-6.25898E+08-2.68240E+08-2.68239E+08-5.46400E+08-1.41975E+01 1.16796E+08
 -1       163 1.51859E+08 5.03929E+06 7.44341E+06-9.58386E+07 3.34663E+06 3.53720E+07
 -1       164 1.94694E+08 5.34474E+06 9.56930E+06-7.29721E+07-7.57154E+05 1.45227E+07
 -1       165-1.76155E+08-7.54968E+07-7.54968E+07-5.49477E+08 4.35921E+01 1.17454E+08
 -1       166-5.44331E+08-2.33286E+08-2.33286E+08-5.46231E+08-1.52763E+01 1.18080E+08
 -1       167-3.18775E+08-1.36620E+08-1.36620E+08-5.46795E+08-3.30407E-01 1.16156E+08
 -1       168-7.25718E+08-3.11019E+08-3.11019E+08-5.48541E+08-7.27763E+01 1.15901E+08
 -1       169 2.34410E+08 8.85540E+06 1.04129E+07-8.91696E+07-5.16586E+06 4.16657E+06
 -1       170-6.75330E+08-2.89429E+08-2.89429E+08-5.45910E+08-2.78556E+00 1.16718E+08
 -1       171-4.36812E+08-1.87208E+08-1.87208E+08-5.49186E+08-4.09227E+01 1.15950E+08
 -3
    1PSTEP                        29           1           1          
    1PGM                1.000000E+00                                  
    1PGK                6.875661E+06                                  
    1PHID                         -1                                  
    1PSUBC                         0                                  
    1PMODE                        15                                  
  100CL  115 4.17328E+02         171                     2   15MODAL      1
 -4  DISP        4    1
 -5  D1          1    2    1    0
 -5  D2          1    2    2    0
 -5  D3          1    2    3    0
 -5  ALL         1    2    0    0    1ALL
 -1         1-4.11857E-03-1.34278E-03-7.09484E-03
 -1         2-5.28789E-03-1.49087E-03-7.25478E-03
 -1         3-2.52185E-16-1.51495E-03-7.08872E-03
 -1         4 1.13009E-03-1.55044E-03-6.97607E-03
 -1         5 9.26678E-04 1.38289E-03 4.20232E-03
 -1         6 1.22182E-03 9.32411E-04 3.84284E-03
 -1         7-1.41814E-16 8.80021E-04 4.11778E-03
 -1         8-2.61119E-04 8.21264E-04 4.36292E-03
 -1         9-4.79519E-03-1.40260E-03-7.23476E-03
 -1        10-2.45650E-03-1.51130E-03-7.12584E-03
 -1        11 5.24984E-04-1.52288E-03-7.07167E-03
 -1        12-1.26298E-03-1.48091E-03-6.98703E-03
 -1        13-2.14771E-03 1.02944E-03 2.44062E-03
 -1        14-2.75934E-03 5.36728E-04 2.05439E-03
 -1        15-2.18575E-16 4.82402E-04 2.25724E-03
 -1        16 5.89705E-04 4.39050E-04 2.51145E-03
 -1        17 1.14976E-03 1.17084E-03 3.96176E-03
 -1        18 4.61340E-04 8.92830E-04 4.04506E-03
 -1        19-9.85942E-05 8.64480E-04 4.17771E-03
 -1        20 1.45610E-04 1.09143E-03 4.34497E-03
 -1        21 5.28789E-03-1.49087E-03-7.25478E-03
 -1        22 6.35742E-03-1.70634E-03-7.17254E-03
 -1        23-1.22182E-03 9.32411E-04 3.84284E-03
 -1        24-1.43042E-03 3.66880E-04 3.98519E-03
 -1        25 2.45650E-03-1.51130E-03-7.12584E-03
 -1        26 5.81984E-03-1.59250E-03-7.26398E-03
 -1        27 3.53155E-03-1.61765E-03-7.02762E-03
 -1        28 2.75934E-03 5.36728E-04 2.05439E-03
 -1        29 3.31520E-03-3.48646E-05 2.21316E-03
 -1        30-4.61340E-04 8.92830E-04 4.04506E-03
 -1        31-1.32503E-03 6.63123E-04 3.85214E-03
 -1        32-6.74502E-04 5.78499E-04 4.23646E-03
 -1        33-3.56107E-04-1.52511E-03-4.93590E-03
 -1        34-4.65620E-04-1.08391E-03-4.58815E-03
 -1        35 7.52436E-17-1.03491E-03-4.84255E-03
 -1        36 9.95088E-05-9.80545E-04-5.07181E-03
 -1        37 1.51652E-03-5.24280E-04-1.76089E-03
 -1        38 2.00307E-03-3.79116E-04-1.64927E-03
 -1        39-3.55618E-17-3.64238E-04-1.70434E-03
 -1        40-4.28082E-04-3.52469E-04-1.77395E-03
 -1        41-4.32739E-04-1.32077E-03-4.68585E-03
 -1        42-1.89867E-04-1.04370E-03-4.79545E-03
 -1        43 4.05769E-05-1.02485E-03-4.88367E-03
 -1        44-7.45232E-05-1.23452E-03-5.08031E-03
 -1        45 4.65620E-04-1.08391E-03-4.58815E-03
 -1        46 5.49686E-04-5.39600E-04-4.72528E-03
 -1        47-2.00307E-03-3.79116E-04-1.64927E-03
 -1        48-2.34089E-03-2.14207E-04-1.69463E-03
 -1        49 1.89867E-04-1.04370E-03-4.79545E-03
 -1        50 5.07538E-04-8.28181E-04-4.58145E-03
 -1        51 2.75472E-04-7.46019E-04-4.97503E-03
 -1        52-4.75117E-04 1.49248E-03 4.79682E-03
 -1        53-6.35720E-04 1.05397E-03 4.44840E-03
 -1        54 2.31586E-16 1.00472E-03 4.70126E-03
 -1        55 1.35861E-04 9.50678E-04 4.93171E-03
 -1        56-1.64192E-03-6.12847E-05-2.17074E-04
 -1        57-2.16326E-03-4.73239E-05-2.05632E-04
 -1        58 1.73689E-16-4.59117E-05-2.14829E-04
 -1        59 4.62316E-04-4.39461E-05-2.21437E-04
 -1        60-5.71865E-04 1.28907E-03 4.54937E-03
 -1        61-2.85463E-04 1.01398E-03 4.65288E-03
 -1        62 6.10071E-05 9.94379E-04 4.74459E-03
 -1        63-1.28928E-04 1.20515E-03 4.93871E-03
 -1        64 6.35720E-04 1.05397E-03 4.44840E-03
 -1        65 7.33390E-04 5.13065E-04 4.58751E-03
 -1        66 2.16326E-03-4.73239E-05-2.05632E-04
 -1        67 2.53446E-03-3.00727E-05-2.10404E-04
 -1        68 2.85463E-04 1.01398E-03 4.65288E-03
 -1        69 6.84347E-04 7.99493E-04 4.44506E-03
 -1        70 3.97397E-04 7.17076E-04 4.83408E-03
 -1        71 1.48110E-03-1.43656E-03-4.61663E-03
 -1        72 1.90215E-03-1.01980E-03-4.29783E-03
 -1        73 2.04047E-16-9.75814E-04-4.56601E-03
 -1        74-4.06513E-04-9.18500E-04-4.77183E-03
 -1        75 1.61703E-03 6.28437E-04 1.91939E-03
 -1        76 2.13721E-03 4.22113E-04 1.75948E-03
 -1        77 2.42102E-16 3.99582E-04 1.86972E-03
 -1        78-4.56749E-04 3.76024E-04 1.97515E-03
 -1        79 1.71901E-03-1.23688E-03-4.41686E-03
 -1        80 9.07751E-04-9.88942E-04-4.47715E-03
 -1        81-1.93998E-04-9.56823E-04-4.62744E-03
 -1        82 4.78107E-04-1.17028E-03-4.73680E-03
 -1        83-1.90215E-03-1.01980E-03-4.29783E-03
 -1        84-2.28623E-03-4.93640E-04-4.41511E-03
 -1        85-2.13721E-03 4.22113E-04 1.75948E-03
 -1        86-2.49604E-03 1.71070E-04 1.82165E-03
 -1        87-9.07751E-04-9.88942E-04-4.47715E-03
 -1        88-2.09768E-03-7.66245E-04-4.31549E-03
 -1        89-1.29378E-03-6.95938E-04-4.63621E-03
 -1        90 0.00000E+00 0.00000E+00 0.00000E+00
 -1        91 0.00000E+00 0.00000E+00 0.00000E+00
 -1        92 0.00000E+00 0.00000E+00 0.00000E+00
 -1        93 0.00000E+00 0.00000E+00 0.00000E+00
 -1        94-5.02843E-04-1.13061E-03-4.72358E-03
 -1        95-6.86830E-04-1.01414E-03-4.62609E-03
 -1        96 1.03216E-16-9.99205E-04-4.67546E-03
 -1        97 1.46784E-04-9.88654E-04-4.74532E-03
 -1        98 0.00000E+00 0.00000E+00 0.00000E+00
 -1        99 0.00000E+00 0.00000E+00 0.00000E+00
 -1       100 0.00000E+00 0.00000E+00 0.00000E+00
 -1       101 0.00000E+00 0.00000E+00 0.00000E+00
 -1       102 0.00000E+00 0.00000E+00 0.00000E+00
 -1       103 0.00000E+00 0.00000E+00 0.00000E+00
 -1       104 6.86830E-04-1.01414E-03-4.62609E-03
 -1       105 7.76188E-04-8.76772E-04-4.66933E-03
 -1       106 0.00000E+00 0.00000E+00 0.00000E+00
 -1       107 0.00000E+00 0.00000E+00 0.00000E+00
 -1       108 0.00000E+00 0.00000E+00 0.00000E+00
 -1       109-6.35742E-03-1.70634E-03-7.17254E-03
 -1       110-1.13009E-03-1.55044E-03-6.97607E-03
 -1       111 1.43042E-03 3.66880E-04 3.98519E-03
 -1       112 2.61119E-04 8.21264E-04 4.36292E-03
 -1       113-5.81984E-03-1.59250E-03-7.26398E-03
 -1       114-3.53155E-03-1.61765E-03-7.02762E-03
 -1       115-5.24984E-04-1.52288E-03-7.07167E-03
 -1       116-3.31520E-03-3.48646E-05 2.21316E-03
 -1       117-5.89705E-04 4.39050E-04 2.51145E-03
 -1       118 1.32503E-03 6.63123E-04 3.85214E-03
 -1       119 6.74502E-04 5.78499E-04 4.23646E-03
 -1       120 9.85942E-05 8.64480E-04 4.17771E-03
 -1       121 4.11857E-03-1.34278E-03-7.09484E-03
 -1       122-9.26678E-04 1.38289E-03 4.20232E-03
 -1       123 1.26298E-03-1.48091E-03-6.98703E-03
 -1       124 4.79519E-03-1.40260E-03-7.23476E-03
 -1       125 2.14771E-03 1.02944E-03 2.44062E-03
 -1       126-1.45610E-04 1.09143E-03 4.34497E-03
 -1       127-1.14976E-03 1.17084E-03 3.96176E-03
 -1       128-5.49686E-04-5.39600E-04-4.72528E-03
 -1       129-9.95088E-05-9.80545E-04-5.07181E-03
 -1       130 2.34089E-03-2.14207E-04-1.69463E-03
 -1       131 4.28082E-04-3.52469E-04-1.77395E-03
 -1       132-5.07538E-04-8.28181E-04-4.58145E-03
 -1       133-2.75472E-04-7.46019E-04-4.97503E-03
 -1       134-4.05769E-05-1.02485E-03-4.88367E-03
 -1       135 3.56107E-04-1.52511E-03-4.93590E-03
 -1       136-1.51652E-03-5.24280E-04-1.76089E-03
 -1       137 7.45232E-05-1.23452E-03-5.08031E-03
 -1       138 4.32739E-04-1.32077E-03-4.68585E-03
 -1       139-7.33390E-04 5.13065E-04 4.58751E-03
 -1       140-1.35861E-04 9.50678E-04 4.93171E-03
 -1       141-2.53446E-03-3.00727E-05-2.10404E-04
 -1       142-4.62316E-04-4.39461E-05-2.21437E-04
 -1       143-6.84347E-04 7.99493E-04 4.44506E-03
 -1       144-3.97397E-04 7.17076E-04 4.83408E-03
 -1       145-6.10071E-05 9.94379E-04 4.74459E-03
 -1       146 4.75117E-04 1.49248E-03 4.79682E-03
 -1       147 1.64192E-03-6.12847E-05-2.17074E-04
 -1       148 1.28928E-04 1.20515E-03 4.93871E-03
 -1       149 5.71865E-04 1.28907E-03 4.54937E-03
 -1       150 2.28623E-03-4.93640E-04-4.41511E-03
 -1       151 4.06513E-04-9.18500E-04-4.77183E-03
 -1       152 2.49604E-03 1.71070E-04 1.82165E-03
 -1       153 4.56749E-04 3.76024E-04 1.97515E-03
 -1       154 2.09768E-03-7.66245E-04-4.31549E-03
 -1       155 1.29378E-03-6.95938E-04-4.63621E-03
 -1       156 1.93998E-04-9.56823E-04-4.62744E-03
 -1       157-1.48110E-03-1.43656E-03-4.61663E-03
 -1       158-1.61703E-03 6.28437E-04 1.91939E-03
 -1       159-4.78107E-04-1.17028E-03-4.73680E-03
 -1       160-1.71901E-03-1.23688E-03-4.41686E-03
 -1       161 0.00000E+00 0.00000E+00 0.00000E+00
 -1       162 0.00000E+00 0.00000E+00 0.00000E+00
 -1       163-7.76188E-04-8.76772E-04-4.66933E-03
 -1       164-1.46784E-04-9.88654E-04-4.74532E-03
 -1       165 0.00000E+00 0.00000E+00 0.00000E+00
 -1       166 0.00000E+00 0.00000E+00 0.00000E+00
 -1       167 0.00000E+00 0.00000E+00 0.00000E+00
 -1       168 0.00000E+00 0.00000E+00 0.00000E+00
 -1       169 5.02843E-04-1.13061E-03-4.72358E-03
 -1       170 0.00000E+00 0.00000E+00 0.00000E+00
 -1       171 0.00000E+00 0.00000E+00 0.00000E+00
 -3
    1PSTEP                        30           1           1          
    1PGM                1.000000E+00                                  
    1PGK                6.875661E+06                                  
    1PHID                         -1                                  
    1PSUBC                         0                                  
    1PMODE                        15                                  
  100CL  115 4.17328E+02         171                     2   15MODAL      1
 -4  STRESS      6    1
 -5  SXX         1    4    1    1
 -5  SYY         1    4    2    2
 -5  SZZ         1    4    3    3
 -5  SXY         1    4    1    2
 -5  SYZ         1    4    2    3
 -5  SZX         1    4    3    1
 -1         1-2.88899E+08-4.25266E+07 2.55553E+07-2.36316E+07 8.44287E+06-8.26855E+07
 -1         2-3.58813E+08-2.06291E+07 2.60390E+07-7.56774E+07-5.85320E+06-7.64734E+07
 -1         3 5.85336E-07-3.93577E-06 1.24383E-05-6.59627E+07-1.11270E-06-3.08651E+08
 -1         4 7.66829E+07-5.56487E+06 4.40871E+06-1.63433E+07 2.73882E+07-3.54108E+08
 -1         5-5.46880E+08-5.48003E+06-1.71554E+06 2.41361E+07-2.24629E+05 6.67896E+07
 -1         6-7.17303E+08-1.39680E+07-5.81476E+06 6.30963E+07 7.28944E+05 5.61598E+07
 -1         7-1.07463E-05 1.88311E-05 1.30322E-05 5.38562E+07 4.39104E-07 2.52003E+08
 -1         8 1.53297E+08 1.24269E+06 2.98513E+06 1.20021E+07-3.41086E+06 2.95239E+08
 -1         9-3.40849E+08-3.45924E+07 2.80723E+07-5.94944E+07-7.03415E+06-7.15649E+07
 -1        10-1.41283E+08-5.02300E+06 2.25364E+07-6.91633E+07-2.06262E+06-1.93292E+08
 -1        11 3.01939E+07-4.81631E+06 1.07348E+06-4.13089E+07 9.65140E+06-3.23627E+08
 -1        12-5.95376E+07-1.76187E+07 2.43632E+07-1.41578E+07 1.99378E+07-2.21048E+08
 -1        13-5.10658E+08 1.21872E+07-3.25897E+07-5.67340E+06-8.08035E+06 1.98994E+05
 -1        14-6.53832E+08 1.30783E+07-2.25591E+07-6.19211E+06 1.11878E+06 9.33424E+06
 -1        15-1.08574E-05 2.03983E-06-1.47382E-06-3.88130E+06 2.48454E-06-1.81613E+07
 -1        16 1.39732E+08 4.82116E+06-2.79501E+06 1.99484E+06-5.23500E+06-2.89740E+07
 -1        17-6.37721E+08-1.32952E+07-7.24796E+06 5.23229E+07 7.77265E+05 5.21618E+07
 -1        18-3.46524E+08 3.50243E+05 6.12251E+06 5.67902E+07 4.48307E+05 1.56508E+08
 -1        19 7.40566E+07-1.30846E+06-7.48513E+04 3.34478E+07-2.09771E+06 2.65732E+08
 -1        20-1.81951E+08 6.74331E+06 1.16789E+07 1.12738E+07-2.27779E+06 1.85155E+08
 -1        21 3.58813E+08 2.06291E+07-2.60390E+07-7.56774E+07 5.85320E+06-7.64734E+07
 -1        22 4.45945E+08 3.51514E+07-8.95455E+06-1.11397E+07 1.30324E+07-8.00158E+07
 -1        23 7.17303E+08 1.39680E+07 5.81476E+06 6.30963E+07-7.28944E+05 5.61598E+07
 -1        24 8.44164E+08 6.77292E+06 4.33415E+06 3.46747E+06-3.46737E+05 6.23725E+07
 -1        25 1.41283E+08 5.02300E+06-2.25364E+07-6.91633E+07 2.06262E+06-1.93292E+08
 -1        26 4.00140E+08 2.69917E+07-2.28682E+07-3.38143E+07 1.22231E+06-7.20739E+07
 -1        27 2.17896E+08 6.73206E+06-1.12019E+07-1.65396E+07 1.86957E+07-2.15560E+08
 -1        28 6.53832E+08-1.30783E+07 2.25591E+07-6.19211E+06-1.11878E+06 9.33424E+06
 -1        29 7.88251E+08 1.24260E+06 3.02507E+07 6.30557E+06-1.24728E+07 2.75905E+06
 -1        30 3.46524E+08-3.50243E+05-6.12251E+06 5.67902E+07-4.48307E+05 1.56508E+08
 -1        31 7.80255E+08 9.33708E+06 4.92152E+06 2.55962E+07-1.68516E+05 5.21053E+07
 -1        32 4.84990E+08-4.14254E+06-6.84208E+06 1.10094E+07-2.14769E+06 1.79443E+08
 -1        33 5.67254E+08 1.95101E+07-6.58782E+05-3.19740E+06-5.32912E+06-4.13487E+06
 -1        34 7.50398E+08 2.93506E+07 4.00428E+06-1.50607E+07 1.28406E+06-1.34324E+06
 -1        35-2.81306E-05-1.50159E-05-1.59955E-06-1.24273E+07-3.23006E-06-5.81498E+07
 -1        36-1.60370E+08-8.55765E+05-6.27259E+06-2.87068E+05-6.00833E+06-7.04719E+07
 -1        37 1.31082E+08-1.03710E+07 1.97048E+07 2.04906E+07 6.89279E+06 1.12615E+07
 -1        38 1.71559E+08-5.99067E+06 1.53609E+07 2.25400E+07-1.79159E+06-1.67000E+07
 -1        39-1.71745E-05 8.52835E-06 5.80773E-06 1.48053E+07-4.42611E-07 6.92766E+07
 -1        40-3.66644E+07-3.28282E+06 1.28028E+06-3.56900E+06 8.38319E+06 1.05469E+08
 -1        41 6.62809E+08 2.27477E+07 1.29506E+06-1.15493E+07 2.49525E+06-5.46518E+05
 -1        42 3.71059E+08 1.81874E+07 1.50115E+07-1.33482E+07-4.20155E+05-3.00022E+07
 -1        43-7.93000E+07-3.20815E+06-3.88687E+06-6.41186E+06 1.96598E+06-6.24586E+07
 -1        44 1.96167E+08 1.16153E+07 7.96850E+06 3.56469E+04-6.10128E+06-3.80421E+07
 -1        45-7.50398E+08-2.93506E+07-4.00428E+06-1.50607E+07-1.28406E+06-1.34324E+06
 -1        46-8.75613E+08-2.10825E+07-8.01636E+06 1.65152E+06-8.22602E+06-3.09859E+06
 -1        47-1.71559E+08 5.99067E+06-1.53609E+07 2.25400E+07 1.79159E+06-1.67000E+07
 -1        48-2.02338E+08 2.53826E+06-1.69459E+07-1.74082E+07 1.06397E+07 3.16205E+06
 -1        49-3.71059E+08-1.81874E+07-1.50115E+07-1.33482E+07 4.20155E+05-3.00022E+07
 -1        50-8.14111E+08-2.84940E+07-6.62130E+06-4.38357E+06 1.44453E+03-6.14795E+05
 -1        51-5.11803E+08-1.33071E+07-1.89195E+07-2.83834E+05-5.56770E+06-3.65107E+07
 -1        52-5.67341E+08-2.12017E+07-3.50251E+06-1.65233E+07 5.20748E+06-3.91610E+07
 -1        53-7.55102E+08-3.39562E+07-1.06914E+07-2.01350E+07-1.03994E+06-2.78397E+07
 -1        54-6.19423E-06 5.67222E-06-2.76510E-06-1.64911E+07 5.78968E-06-7.71649E+07
 -1        55 1.61375E+08 2.28489E+06 7.25687E+06-5.94969E+06 4.86608E+06-9.42151E+07
 -1        56 1.10542E+07-2.14316E+06-6.80892E+05-2.40646E+07 5.81558E+05-2.15430E+07
 -1        57 1.62380E+07-1.63724E+06-9.37941E+05-1.95155E+07-1.04062E+05 8.42652E+06
 -1        58-1.78078E-05-4.71517E-06-2.06381E-06-1.22772E+07 2.22877E-07-5.74471E+07
 -1        59-3.47026E+06 2.00450E+05 3.49898E+05 1.80085E+06 4.86927E+05-9.13164E+07
 -1        60-6.62795E+08-2.53387E+07-6.36056E+06-1.85523E+07-1.51861E+06-3.13472E+07
 -1        61-3.78783E+08-2.17776E+07-1.90215E+07-1.79146E+07 4.17555E+05-5.31735E+07
 -1        62 8.09507E+07 4.06513E+06 4.65415E+06-1.13638E+07-1.95382E+06-8.38256E+07
 -1        63-2.02352E+08-1.34985E+07-1.07986E+07-9.74660E+06 5.27869E+06-6.73569E+07
 -1        64 7.55102E+08 3.39562E+07 1.06914E+07-2.01350E+07 1.03994E+06-2.78397E+07
 -1        65 8.75746E+08 2.47998E+07 1.33336E+07 5.65441E+05 8.03826E+06-3.55089E+07
 -1        66-1.62380E+07 1.63724E+06 9.37941E+05-1.95155E+07 1.04062E+05 8.42652E+06
 -1        67-1.70632E+07 2.65325E+06 1.70595E+06 1.67193E+07 8.97693E+05-1.28270E+07
 -1        68 3.78783E+08 2.17776E+07 1.90215E+07-1.79146E+07-4.17555E+05-5.31735E+07
 -1        69 8.16866E+08 3.26006E+07 1.30151E+07-9.83984E+06 7.00255E+05-2.99823E+07
 -1        70 5.18574E+08 1.76393E+07 2.31809E+07-3.36028E+06 5.10380E+06-6.54950E+07
 -1        71 4.39471E+08-2.24557E+07-5.08477E+06 2.49859E+07 1.02788E+07 9.19260E+07
 -1        72 5.91052E+08-1.24314E+07-6.05721E+06 3.56301E+07-3.46739E+06 8.63538E+07
 -1        73 1.79266E-05-7.39237E-07 6.31995E-06 3.14352E+07 4.52390E-07 1.47091E+08
 -1        74-1.26315E+08 1.29450E+06 2.65674E+06 1.84549E+07 1.62246E+07 1.66720E+08
 -1        75-1.91448E+08 1.81258E+07-4.19541E+06 2.92651E+07-6.94063E+06 3.73286E+07
 -1        76-2.48126E+08 1.76777E+07 1.21486E+06 1.32578E+07 1.90364E+06 4.23357E+06
 -1        77 2.44519E-06 3.36207E-07-1.53854E-06 6.62477E+06 1.20932E-06 3.09985E+07
 -1        78 5.30276E+07-2.59630E+05-3.77794E+06 9.04768E+05-8.90748E+06 6.20358E+07
 -1        79 5.16516E+08-1.27498E+07-3.33887E+06 3.39393E+07-1.00014E+06 8.49416E+07
 -1        80 2.87304E+08-1.61257E+07-2.59197E+07 3.27292E+07-1.06450E+06 1.18221E+08
 -1        81-6.14005E+07 5.53936E+06 3.44626E+06 2.52653E+07 4.98097E+06 1.53146E+08
 -1        82 1.49095E+08-2.01241E+07-2.33918E+07 1.89632E+07 1.45717E+07 1.31463E+08
 -1        83-5.91052E+08 1.24314E+07 6.05721E+06 3.56301E+07 3.46739E+06 8.63538E+07
 -1        84-6.78367E+08 2.68824E+07 1.56289E+07 1.37945E+07 1.58663E+07 8.95342E+07
 -1        85 2.48126E+08-1.76777E+07-1.21486E+06 1.32578E+07-1.90364E+06 4.23357E+06
 -1        86 2.95519E+08-1.79818E+07-3.52123E+06-1.53476E+07-1.07136E+07 2.77943E+07
 -1        87-2.87304E+08 1.61257E+07 2.59197E+07 3.27292E+07 1.06450E+06 1.18221E+08
 -1        88-6.32733E+08 2.44469E+07 1.26717E+07 2.16919E+07 5.43052E+06 8.45788E+07
 -1        89-3.94704E+08 2.35458E+07 3.13412E+07 1.72654E+07 1.55185E+07 1.28846E+08
 -1        90-4.70147E+08-2.01490E+08-2.01490E+08-1.18687E+08-4.71472E+01-5.49136E+08
 -1        91-6.25898E+08-2.68239E+08-2.68240E+08-1.16796E+08 1.41975E+01-5.46400E+08
 -1        92 2.80640E-05 1.20022E-05 1.19228E-05-1.16191E+08 3.59323E-08-5.43680E+08
 -1        93 1.33762E+08 5.73262E+07 5.73261E+07-1.16772E+08-6.64328E+01-5.46512E+08
 -1        94 1.51859E+08 7.44341E+06 5.03929E+06-3.53720E+07-3.34663E+06-9.58386E+07
 -1        95 1.94694E+08 9.56930E+06 5.34474E+06-1.45227E+07 7.57154E+05-7.29721E+07
 -1        96 1.97296E-05-2.63471E-06 2.87779E-07-1.21016E+07 1.21247E-07-5.66256E+07
 -1        97-4.16086E+07-1.14224E+06-2.04508E+06-1.55951E+07-3.54286E+06-6.79546E+07
 -1        98-5.44331E+08-2.33286E+08-2.33286E+08-1.18080E+08 1.52763E+01-5.46231E+08
 -1        99-3.18775E+08-1.36620E+08-1.36620E+08-1.16156E+08 3.30407E-01-5.46795E+08
 -1       100 6.81262E+07 2.91974E+07 2.91974E+07-1.16857E+08-1.54603E+00-5.43516E+08
 -1       101-1.76155E+08-7.54968E+07-7.54968E+07-1.17454E+08-4.35921E+01-5.49477E+08
 -1       102 6.25898E+08 2.68239E+08 2.68240E+08-1.16796E+08-1.41975E+01-5.46400E+08
 -1       103 7.25718E+08 3.11019E+08 3.11019E+08-1.15901E+08-7.27763E+01-5.48541E+08
 -1       104-1.94694E+08-9.56930E+06-5.34474E+06-1.45227E+07-7.57154E+05-7.29721E+07
 -1       105-2.34410E+08-1.04129E+07-8.85540E+06-4.16657E+06-5.16586E+06-8.91696E+07
 -1       106 3.18775E+08 1.36620E+08 1.36620E+08-1.16156E+08-3.30407E-01-5.46795E+08
 -1       107 6.75330E+08 2.89429E+08 2.89429E+08-1.16718E+08-2.78556E+00-5.45910E+08
 -1       108 4.36812E+08 1.87208E+08 1.87208E+08-1.15950E+08-4.09227E+01-5.49186E+08
 -1       109-4.45945E+08-3.51514E+07 8.95455E+06-1.11397E+07-1.30324E+07-8.00158E+07
 -1       110-7.66829E+07 5.56487E+06-4.40871E+06-1.63433E+07-2.73882E+07-3.54108E+08
 -1       111-8.44164E+08-6.77292E+06-4.33415E+06 3.46747E+06 3.46737E+05 6.23725E+07
 -1       112-1.53297E+08-1.24269E+06-2.98513E+06 1.20021E+07 3.41086E+06 2.95239E+08
 -1       113-4.00140E+08-2.69917E+07 2.28682E+07-3.38143E+07-1.22231E+06-7.20739E+07
 -1       114-2.17896E+08-6.73206E+06 1.12019E+07-1.65396E+07-1.86957E+07-2.15560E+08
 -1       115-3.01939E+07 4.81631E+06-1.07348E+06-4.13089E+07-9.65140E+06-3.23627E+08
 -1       116-7.88251E+08-1.24260E+06-3.02507E+07 6.30557E+06 1.24728E+07 2.75905E+06
 -1       117-1.39732E+08-4.82116E+06 2.79501E+06 1.99484E+06 5.23500E+06-2.89740E+07
 -1       118-7.80255E+08-9.33708E+06-4.92152E+06 2.55962E+07 1.68516E+05 5.21053E+07
 -1       119-4.84990E+08 4.14254E+06 6.84208E+06 1.10094E+07 2.14769E+06 1.79443E+08
 -1       120-7.40566E+07 1.30846E+06 7.48513E+04 3.34478E+07 2.09771E+06 2.65732E+08
 -1       121 2.88899E+08 4.25266E+07-2.55553E+07-2.36316E+07-8.44287E+06-8.26855E+07
 -1       122 5.46880E+08 5.48003E+06 1.71554E+06 2.41361E+07 2.24629E+05 6.67896E+07
 -1       123 5.95376E+07 1.76187E+07-2.43632E+07-1.41578E+07-1.99378E+07-2.21048E+08
 -1       124 3.40849E+08 3.45924E+07-2.80723E+07-5.94944E+07 7.03415E+06-7.15649E+07
 -1       125 5.10658E+08-1.21872E+07 3.25897E+07-5.67340E+06 8.08035E+06 1.98994E+05
 -1       126 1.81951E+08-6.74331E+06-1.16789E+07 1.12738E+07 2.27779E+06 1.85155E+08
 -1       127 6.37721E+08 1.32952E+07 7.24796E+06 5.23229E+07-7.77265E+05 5.21618E+07
 -1       128 8.75613E+08 2.10825E+07 8.01636E+06 1.65152E+06 8.22602E+06-3.09859E+06
 -1       129 1.60370E+08 8.55765E+05 6.27259E+06-2.87068E+05 6.00833E+06-7.04719E+07
 -1       130 2.02338E+08-2.53826E+06 1.69459E+07-1.74082E+07-1.06397E+07 3.16205E+06
 -1       131 3.66644E+07 3.28282E+06-1.28028E+06-3.56900E+06-8.38319E+06 1.05469E+08
 -1       132 8.14111E+08 2.84940E+07 6.62130E+06-4.38357E+06-1.44453E+03-6.14795E+05
 -1       133 5.11803E+08 1.33071E+07 1.89195E+07-2.83834E+05 5.56770E+06-3.65107E+07
 -1       134 7.93000E+07 3.20815E+06 3.88687E+06-6.41186E+06-1.96598E+06-6.24586E+07
 -1       135-5.67254E+08-1.95101E+07 6.58782E+05-3.19740E+06 5.32912E+06-4.13487E+06
 -1       136-1.31082E+08 1.03710E+07-1.97048E+07 2.04906E+07-6.89279E+06 1.12615E+07
 -1       137-1.96167E+08-1.16153E+07-7.96850E+06 3.56469E+04 6.10128E+06-3.80421E+07
 -1       138-6.62809E+08-2.27477E+07-1.29506E+06-1.15493E+07-2.49525E+06-5.46518E+05
 -1       139-8.75746E+08-2.47998E+07-1.33336E+07 5.65441E+05-8.03826E+06-3.55089E+07
 -1       140-1.61375E+08-2.28489E+06-7.25687E+06-5.94969E+06-4.86608E+06-9.42151E+07
 -1       141 1.70632E+07-2.65325E+06-1.70595E+06 1.67193E+07-8.97693E+05-1.28270E+07
 -1       142 3.47026E+06-2.00450E+05-3.49898E+05 1.80085E+06-4.86927E+05-9.13164E+07
 -1       143-8.16866E+08-3.26006E+07-1.30151E+07-9.83984E+06-7.00255E+05-2.99823E+07
 -1       144-5.18574E+08-1.76393E+07-2.31809E+07-3.36028E+06-5.10380E+06-6.54950E+07
 -1       145-8.09507E+07-4.06513E+06-4.65415E+06-1.13638E+07 1.95382E+06-8.38256E+07
 -1       146 5.67341E+08 2.12017E+07 3.50251E+06-1.65233E+07-5.20748E+06-3.91610E+07
 -1       147-1.10542E+07 2.14316E+06 6.80892E+05-2.40646E+07-5.81558E+05-2.15430E+07
 -1       148 2.02352E+08 1.34985E+07 1.07986E+07-9.74660E+06-5.27869E+06-6.73569E+07
 -1       149 6.62795E+08 2.53387E+07 6.36056E+06-1.85523E+07 1.51861E+06-3.13472E+07
 -1       150 6.78367E+08-2.68824E+07-1.56289E+07 1.37945E+07-1.58663E+07 8.95342E+07
 -1       151 1.26315E+08-1.29450E+06-2.65674E+06 1.84549E+07-1.62246E+07 1.66720E+08
 -1       152-2.95519E+08 1.79818E+07 3.52123E+06-1.53476E+07 1.07136E+07 2.77943E+07
 -1       153-5.30276E+07 2.59630E+05 3.77794E+06 9.04768E+05 8.90748E+06 6.20358E+07
 -1       154 6.32733E+08-2.44469E+07-1.26717E+07 2.16919E+07-5.43052E+06 8.45788E+07
 -1       155 3.94704E+08-2.35458E+07-3.13412E+07 1.72654E+07-1.55185E+07 1.28846E+08
 -1       156 6.14005E+07-5.53936E+06-3.44626E+06 2.52653E+07-4.98097E+06 1.53146E+08
 -1       157-4.39471E+08 2.24557E+07 5.08477E+06 2.49859E+07-1.02788E+07 9.19260E+07
 -1       158 1.91448E+08-1.81258E+07 4.19541E+06 2.92651E+07 6.94063E+06 3.73286E+07
 -1       159-1.49095E+08 2.01241E+07 2.33918E+07 1.89632E+07-1.45717E+07 1.31463E+08
 -1       160-5.16516E+08 1.27498E+07 3.33887E+06 3.39393E+07 1.00014E+06 8.49416E+07
 -1       161-7.25718E+08-3.11019E+08-3.11019E+08-1.15901E+08 7.27763E+01-5.48541E+08
 -1       162-1.33762E+08-5.73262E+07-5.73261E+07-1.16772E+08 6.64328E+01-5.46512E+08
 -1       163 2.34410E+08 1.04129E+07 8.85540E+06-4.16657E+06 5.16586E+06-8.91696E+07
 -1       164 4.16086E+07 1.14224E+06 2.04508E+06-1.55951E+07 3.54286E+06-6.79546E+07
 -1       165-6.75330E+08-2.89429E+08-2.89429E+08-1.16718E+08 2.78556E+00-5.45910E+08
 -1       166-4.36812E+08-1.87208E+08-1.87208E+08-1.15950E+08 4.09227E+01-5.49186E+08
 -1       167-6.81262E+07-2.91974E+07-2.91974E+07-1.16857E+08 1.54603E+00-5.43516E+08
 -1       168 4.70147E+08 2.01490E+08 2.01490E+08-1.18687E+08 4.71472E+01-5.49136E+08
 -1       169-1.51859E+08-7.44341E+06-5.03929E+06-3.53720E+07 3.34663E+06-9.58386E+07
 -1       170 1.76155E+08 7.54968E+07 7.54968E+07-1.17454E+08 4.35921E+01-5.49477E+08
 -1       171 5.44331E+08 2.33286E+08 2.33286E+08-1.18080E+08-1.52763E+01-5.46231E+08
 -3
    1PSTEP                        31           1           1          
    1PGM                1.000000E+00                                  
    1PGK                1.091728E+07                                  
    1PHID                         -1                                  
    1PSUBC                         0                                  
    1PMODE                        16                                  
  100CL  116 5.25869E+02         171                     2   16MODAL      1
 -4  DISP        4    1
 -5  D1          1    2    1    0
 -5  D2          1    2    2    0
 -5  D3          1    2    3    0
 -5  ALL         1    2    0    0    1ALL
 -1         1 1.89735E-18 6.51508E-03 6.51508E-03
 -1         2-3.38271E-17 6.39004E-03-1.79598E-16
 -1         3 1.12757E-16-1.84450E-17-1.74665E-16
 -1         4 1.56884E-16 7.26415E-18 6.39004E-03
 -1         5 6.63532E-17-3.93107E-03-3.93107E-03
 -1         6 1.03650E-16-3.90350E-03 4.98733E-17
 -1         7 6.08102E-17-1.73364E-16 5.24754E-17
 -1         8 3.12250E-17-5.44269E-17-3.90350E-03
 -1         9 2.02179E-04 6.45423E-03 3.24971E-03
 -1        10 4.64039E-17 3.19965E-03-1.70074E-16
 -1        11 1.30016E-16 1.49078E-17 3.19965E-03
 -1        12-2.02179E-04 3.24971E-03 6.45423E-03
 -1        13 4.09828E-17 2.82510E-03 2.82510E-03
 -1        14 3.26074E-17 2.80554E-03 3.77302E-17
 -1        15 1.02349E-16 5.18249E-17 6.15827E-17
 -1        16 7.93636E-17 9.32414E-18 2.80554E-03
 -1        17 5.23492E-04-3.92096E-03-1.95175E-03
 -1        18 7.88215E-17-1.95923E-03 4.22839E-17
 -1        19 5.03070E-17-9.43256E-17-1.95923E-03
 -1        20-5.23492E-04-1.95175E-03-3.92096E-03
 -1        21 2.63854E-16-6.39004E-03-1.90061E-16
 -1        22 2.86284E-16-6.51508E-03 6.51508E-03
 -1        23 1.71304E-17 3.90350E-03 3.90313E-17
 -1        24-8.56520E-18 3.93107E-03-3.93107E-03
 -1        25 1.85182E-16-3.19965E-03-1.89600E-16
 -1        26-2.02179E-04-6.45423E-03 3.24971E-03
 -1        27 2.02179E-04-3.24971E-03 6.45423E-03
 -1        28 1.52764E-16-2.80554E-03 6.45100E-17
 -1        29 1.65016E-16-2.82510E-03 2.82510E-03
 -1        30 4.38018E-17 1.95923E-03 3.98986E-17
 -1        31-5.23492E-04 3.92096E-03-1.95175E-03
 -1        32 5.23492E-04 1.95175E-03-3.92096E-03
 -1        33-2.73219E-17-1.40232E-03-1.40232E-03
 -1        34-7.56773E-17-1.39550E-03-2.58040E-17
 -1        35-3.57787E-17 7.22079E-17-2.86229E-17
 -1        36 1.07878E-17 6.11490E-17-1.39550E-03
 -1        37 5.24754E-17-6.47100E-03-6.47100E-03
 -1        38 2.21177E-17-6.33018E-03-4.85723E-17
 -1        39 1.12757E-17-5.59448E-17-5.83301E-17
 -1        40 5.16080E-17-9.24824E-17-6.33018E-03
 -1        41-7.05028E-04-1.39971E-03-6.98360E-04
 -1        42-5.07407E-17-6.99192E-04-2.77556E-17
 -1        43-1.15196E-17 6.11490E-17-6.99192E-04
 -1        44 7.05028E-04-6.98360E-04-1.39971E-03
 -1        45 4.55365E-18 1.39550E-03-3.59955E-17
 -1        46 4.42897E-17 1.40232E-03-1.40232E-03
 -1        47 1.84314E-18 6.33018E-03-7.22079E-17
 -1        48 1.47451E-17 6.47100E-03-6.47100E-03
 -1        49-2.07760E-17 6.99192E-04-3.10082E-17
 -1        50 7.05028E-04 1.39971E-03-6.98360E-04
 -1        51-7.05028E-04 6.98360E-04-1.39971E-03
 -1        52-1.19696E-16 5.55582E-03 5.55582E-03
 -1        53-6.59195E-17 5.51296E-03 3.90313E-18
 -1        54-1.05601E-16-6.72205E-17-5.42101E-18
 -1        55-1.60462E-16-6.63532E-17 5.51296E-03
 -1        56-1.02999E-16 5.11702E-03 5.11702E-03
 -1        57-7.50268E-17 4.99968E-03 7.63278E-17
 -1        58-7.03105E-17 1.14925E-16 5.18791E-17
 -1        59-9.97466E-17 8.67362E-17 4.99968E-03
 -1        60 3.38999E-04 5.53847E-03 2.76312E-03
 -1        61-8.76035E-17 2.76431E-03 3.03577E-18
 -1        62-1.25767E-16-4.81386E-17 2.76431E-03
 -1        63-3.38999E-04 2.76312E-03 5.53847E-03
 -1        64-1.42464E-16-5.51296E-03-8.02310E-18
 -1        65-1.89735E-16-5.55582E-03 5.55582E-03
 -1        66-7.24247E-17-4.99968E-03 3.68629E-17
 -1        67-9.15067E-17-5.11702E-03 5.11702E-03
 -1        68-1.21756E-16-2.76431E-03-7.80626E-18
 -1        69-3.38999E-04-5.53847E-03 2.76312E-03
 -1        70 3.38999E-04-2.76312E-03 5.53847E-03
 -1        71-8.37004E-17-5.19719E-03-5.19719E-03
 -1        72-1.50704E-16-5.18068E-03-4.11997E-18
 -1        73-1.18178E-16 1.14763E-16 6.50521E-18
 -1        74-5.11743E-17 1.08041E-16-5.18068E-03
 -1        75-9.36751E-17 1.80559E-04 1.80559E-04
 -1        76-1.28776E-16 1.97485E-04-4.59702E-17
 -1        77-1.21864E-16-6.09322E-17-5.59448E-17
 -1        78-8.86505E-17-7.15573E-17 1.97485E-04
 -1        79 1.66145E-04-5.19125E-03-2.59029E-03
 -1        80-1.31541E-16-2.59476E-03 1.73472E-18
 -1        81-8.99888E-17 9.61958E-17-2.59476E-03
 -1        82-1.66145E-04-2.59029E-03-5.19125E-03
 -1        83-7.82794E-17 5.18068E-03 1.95156E-17
 -1        84-1.89735E-17 5.19719E-03-5.19719E-03
 -1        85-1.15684E-16-1.97485E-04-6.22332E-17
 -1        86-8.76849E-17-1.80559E-04 1.80559E-04
 -1        87-1.03650E-16 2.59476E-03 1.17094E-17
 -1        88-1.66145E-04 5.19125E-03-2.59029E-03
 -1        89 1.66145E-04 2.59029E-03-5.19125E-03
 -1        90 0.00000E+00 0.00000E+00 0.00000E+00
 -1        91 0.00000E+00 0.00000E+00 0.00000E+00
 -1        92 0.00000E+00 0.00000E+00 0.00000E+00
 -1        93 0.00000E+00 0.00000E+00 0.00000E+00
 -1        94-7.41594E-17-5.33170E-03-5.33170E-03
 -1        95-6.80879E-17-5.30960E-03 3.98986E-17
 -1        96-6.85216E-17 1.54119E-16 5.11743E-17
 -1        97-7.70868E-17 1.62630E-16-5.30960E-03
 -1        98 0.00000E+00 0.00000E+00 0.00000E+00
 -1        99 0.00000E+00 0.00000E+00 0.00000E+00
 -1       100 0.00000E+00 0.00000E+00 0.00000E+00
 -1       101 0.00000E+00 0.00000E+00 0.00000E+00
 -1       102 0.00000E+00 0.00000E+00 0.00000E+00
 -1       103 0.00000E+00 0.00000E+00 0.00000E+00
 -1       104-6.83047E-17 5.30960E-03 6.24500E-17
 -1       105-7.97973E-17 5.33170E-03-5.33170E-03
 -1       106 0.00000E+00 0.00000E+00 0.00000E+00
 -1       107 0.00000E+00 0.00000E+00 0.00000E+00
 -1       108 0.00000E+00 0.00000E+00 0.00000E+00
 -1       109-8.84709E-17 6.51508E-03-6.51508E-03
 -1       110 8.19657E-17-4.01155E-18-6.39004E-03
 -1       111 1.09288E-16-3.93107E-03 3.93107E-03
 -1       112 8.48930E-17-1.69678E-17 3.90350E-03
 -1       113-2.02179E-04 6.45423E-03-3.24971E-03
 -1       114 2.02179E-04 3.24971E-03-6.45423E-03
 -1       115 1.01915E-16-1.62630E-17-3.19965E-03
 -1       116 2.55872E-17 2.82510E-03-2.82510E-03
 -1       117 1.04083E-16-1.08420E-17-2.80554E-03
 -1       118-5.23492E-04-3.92096E-03 1.95175E-03
 -1       119 5.23492E-04-1.95175E-03 3.92096E-03
 -1       120 7.04731E-17-3.42879E-17 1.95923E-03
 -1       121 2.02963E-16-6.51508E-03-6.51508E-03
 -1       122 4.09828E-17 3.93107E-03 3.93107E-03
 -1       123-2.02179E-04-3.24971E-03-6.45423E-03
 -1       124 2.02179E-04-6.45423E-03-3.24971E-03
 -1       125 1.53740E-16-2.82510E-03-2.82510E-03
 -1       126-5.23492E-04 1.95175E-03 3.92096E-03
 -1       127 5.23492E-04 3.92096E-03 1.95175E-03
 -1       128-1.21864E-16-1.40232E-03 1.40232E-03
 -1       129-8.71699E-17 8.71699E-17 1.39550E-03
 -1       130-1.12757E-17-6.47100E-03 6.47100E-03
 -1       131-2.75387E-17-3.12250E-17 6.33018E-03
 -1       132 7.05028E-04-1.39971E-03 6.98360E-04
 -1       133-7.05028E-04-6.98360E-04 1.39971E-03
 -1       134-5.76796E-17 5.56196E-17 6.99192E-04
 -1       135-5.29091E-17 1.40232E-03 1.40232E-03
 -1       136-4.46691E-17 6.47100E-03 6.47100E-03
 -1       137 7.05028E-04 6.98360E-04 1.39971E-03
 -1       138-7.05028E-04 1.39971E-03 6.98360E-04
 -1       139-2.03830E-17 5.55582E-03-5.55582E-03
 -1       140-5.42101E-17-4.07660E-17-5.51296E-03
 -1       141-5.22585E-17 5.11702E-03-5.11702E-03
 -1       142-4.26091E-17 9.75782E-17-4.99968E-03
 -1       143-3.38999E-04 5.53847E-03-2.76312E-03
 -1       144 3.38999E-04 2.76312E-03-5.53847E-03
 -1       145-8.58146E-17-5.76796E-17-2.76431E-03
 -1       146-8.67362E-17-5.55582E-03-5.55582E-03
 -1       147-3.66460E-17-5.11702E-03-5.11702E-03
 -1       148-3.38999E-04-2.76312E-03-5.53847E-03
 -1       149 3.38999E-04-5.53847E-03-2.76312E-03
 -1       150-2.13371E-16-5.19719E-03 5.19719E-03
 -1       151-1.81821E-16 1.10155E-16 5.18068E-03
 -1       152-1.59161E-16 1.80559E-04-1.80559E-04
 -1       153-1.58727E-16-5.87638E-17-1.97485E-04
 -1       154-1.66145E-04-5.19125E-03 2.59029E-03
 -1       155 1.66145E-04-2.59029E-03 5.19125E-03
 -1       156-1.47018E-16 1.09925E-16 2.59476E-03
 -1       157-1.42898E-16 5.19719E-03 5.19719E-03
 -1       158-1.64799E-16-1.80559E-04-1.80559E-04
 -1       159-1.66145E-04 2.59029E-03 5.19125E-03
 -1       160 1.66145E-04 5.19125E-03 2.59029E-03
 -1       161 0.00000E+00 0.00000E+00 0.00000E+00
 -1       162 0.00000E+00 0.00000E+00 0.00000E+00
 -1       163-5.46438E-17-5.33170E-03 5.33170E-03
 -1       164-5.54027E-17 1.43332E-16 5.30960E-03
 -1       165 0.00000E+00 0.00000E+00 0.00000E+00
 -1       166 0.00000E+00 0.00000E+00 0.00000E+00
 -1       167 0.00000E+00 0.00000E+00 0.00000E+00
 -1       168 0.00000E+00 0.00000E+00 0.00000E+00
 -1       169-5.30717E-17 5.33170E-03 5.33170E-03
 -1       170 0.00000E+00 0.00000E+00 0.00000E+00
 -1       171 0.00000E+00 0.00000E+00 0.00000E+00
 -3
    1PSTEP                        32           1           1          
    1PGM                1.000000E+00                                  
    1PGK                1.091728E+07                                  
    1PHID                         -1                                  
    1PSUBC                         0                                  
    1PMODE                        16                                  
  100CL  116 5.25869E+02         171                     2   16MODAL      1
 -4  STRESS      6    1
 -5  SXX         1    4    1    1
 -5  SYY         1    4    2    2
 -5  SZZ         1    4    3    3
 -5  SXY         1    4    1    2
 -5  SYZ         1    4    2    3
 -5  SZX         1    4    3    1
 -1         1-2.84930E-05 3.64106E+07-3.64106E+07 4.14877E+07-2.60625E-06 4.14877E+07
 -1         2 5.13345E-06 3.21940E-05 2.78670E-05 2.79967E+08 1.72651E+07 2.70829E-06
 -1         3 3.83299E-06 2.17462E-05-5.56341E-06-1.40506E-05-1.06452E-06-7.29493E-06
 -1         4 8.83825E-06-2.27448E-05-9.08226E-06 7.02683E-06-1.72651E+07 2.79967E+08
 -1         5-2.35208E-05-3.96250E+06 3.96250E+06 2.40677E+08-3.16178E-06 2.40677E+08
 -1         6 2.03671E-05 5.52703E-05 1.26339E-05 8.75176E+08-3.53354E+05 7.76723E-07
 -1         7-8.45887E-06-4.84668E-05-1.56903E-05 7.95272E-06 6.44629E-06 7.78319E-06
 -1         8 4.22169E-06 1.70087E-05 2.67569E-06 1.73738E-06 3.53354E+05 8.75176E+08
 -1         9-2.51792E+07 3.80108E+07-1.48361E+07 1.60948E+08 8.37478E+06-1.11807E+07
 -1        10-5.44917E-06-8.94070E-08 1.64285E-06 1.09355E+08 8.89036E+06-3.00072E-06
 -1        11 1.32462E-05 1.44271E-05 3.75323E-06-2.88989E-06-8.89036E+06 1.09355E+08
 -1        12 2.51792E+07 1.48361E+07-3.80108E+07-1.11807E+07-8.37478E+06 1.60948E+08
 -1        13-1.64868E-05 7.24872E+06-7.24872E+06 1.78499E+08-6.70783E-06 1.78499E+08
 -1        14-4.01540E-06 2.13720E-05 1.11058E-05 6.19199E+08 3.96810E+06 2.95229E-06
 -1        15 6.34047E-06 1.04038E-06 2.77356E-06 3.63731E-06-3.17000E-06 2.15834E-07
 -1        16-9.48040E-06-5.60789E-05-1.74381E-05-1.10874E-06-3.96810E+06 6.19199E+08
 -1        17 5.12788E+07 7.90281E+06 1.18245E+07 5.57980E+08 3.88377E+05 3.95998E+07
 -1        18 1.55453E-05 2.14434E-05 1.20371E-05 3.57171E+08-7.41731E+05 4.43496E-06
 -1        19 2.93458E-05 6.22478E-05 2.14938E-05 5.38770E-06 7.41731E+05 3.57171E+08
 -1        20-5.12788E+07-1.18245E+07-7.90281E+06 3.95998E+07-3.88377E+05 5.57980E+08
 -1        21 2.07629E-05-4.80562E-06 7.94046E-06-2.79967E+08 1.72651E+07-4.74055E-06
 -1        22 5.93076E-05-3.64106E+07 3.64106E+07-4.14877E+07 1.30956E-05 4.14877E+07
 -1        23 4.74020E-05 6.35665E-05 3.71048E-05-8.75176E+08-3.53354E+05 3.68645E-06
 -1        24-3.69502E-06 3.96250E+06-3.96250E+06-2.40677E+08-2.06230E-05 2.40677E+08
 -1        25 4.09968E-06-8.30553E-06-6.58818E-06-1.09355E+08 8.89036E+06-5.94789E-06
 -1        26 2.51792E+07-3.80108E+07 1.48361E+07-1.60948E+08 8.37478E+06-1.11807E+07
 -1        27-2.51792E+07-1.48361E+07 3.80108E+07 1.11807E+07-8.37478E+06 1.60948E+08
 -1        28 4.35910E-05 2.86810E-05 3.43563E-05-6.19199E+08 3.96810E+06-1.54809E-06
 -1        29 5.20097E-05-7.24872E+06 7.24872E+06-1.78499E+08-1.98495E-06 1.78499E+08
 -1        30 2.43619E-05 2.47400E-05 9.44528E-06-3.57171E+08-7.41731E+05 5.98693E-06
 -1        31-5.12788E+07-7.90281E+06-1.18245E+07-5.57980E+08 3.88377E+05 3.95998E+07
 -1        32 5.12788E+07 1.18245E+07 7.90281E+06-3.95998E+07-3.88377E+05 5.57980E+08
 -1        33 4.84957E-05-1.11123E+06 1.11123E+06-2.75081E+08-4.23994E-06-2.75081E+08
 -1        34-1.01579E-05-5.00486E-05-2.07466E-05-1.12431E+09-2.15911E+05-1.14006E-06
 -1        35 1.61844E-05 1.74841E-05 9.82011E-06-4.39552E-06 3.44080E-06-6.34399E-06
 -1        36 2.78217E-05 1.52235E-05 8.55117E-06-7.56403E-06 2.15911E+05-1.12431E+09
 -1        37 1.22499E-05-4.05771E+07 4.05771E+07-4.14048E+07-9.22002E-06-4.14048E+07
 -1        38 8.21054E-06-1.83657E-05-1.41710E-05-1.52321E+08-1.93044E+07 2.00793E-06
 -1        39-7.05306E-07-2.45382E-05-1.00282E-05-2.92841E-06 4.84830E-06 1.44266E-06
 -1        40-1.15037E-05-3.29465E-05-1.22488E-05 1.61119E-07 1.93044E+07-1.52321E+08
 -1        41 1.02816E+07 1.08716E+06 2.43584E+06-6.99850E+08 1.54469E+04-2.85289E+07
 -1        42 3.43272E-06-1.54843E-05-4.42998E-06-4.53987E+08-2.31358E+05-4.34159E-06
 -1        43 1.77151E-05 3.45457E-06 8.26518E-06-5.43566E-06 2.31358E+05-4.53987E+08
 -1        44-1.02816E+07-2.43584E+06-1.08716E+06-2.85289E+07-1.54469E+04-6.99850E+08
 -1        45-2.15031E-05-6.43136E-05-3.02665E-05 1.12431E+09-2.15911E+05 2.61818E-07
 -1        46 1.54092E-05 1.11123E+06-1.11123E+06 2.75081E+08 1.05409E-05-2.75081E+08
 -1        47-4.50760E-07-3.06964E-06-2.56673E-06 1.52321E+08-1.93044E+07 1.64949E-06
 -1        48-1.83824E-05 4.05771E+07-4.05771E+07 4.14048E+07 1.09745E-06-4.14048E+07
 -1        49-5.09981E-06-2.94122E-05-1.27937E-05 4.53987E+08-2.31358E+05-3.52948E-06
 -1        50-1.02816E+07-1.08716E+06-2.43584E+06 6.99850E+08 1.54469E+04-2.85289E+07
 -1        51 1.02816E+07 2.43584E+06 1.08716E+06 2.85289E+07-1.54469E+04-6.99850E+08
 -1        52-5.15358E-06 8.16598E+06-8.16598E+06 9.81335E+07 3.51432E-07 9.81335E+07
 -1        53-4.83077E-06-3.07318E-05-8.66968E-06 5.05223E+08 2.31059E+06 2.64597E-06
 -1        54 1.23626E-05 1.74854E-05 3.05690E-06 1.01047E-05-3.37853E-06 4.44299E-06
 -1        55-1.56877E-05-3.45050E-05-7.82311E-08-6.40284E-09-2.31059E+06 5.05223E+08
 -1        56 1.96751E-05 3.40891E+07-3.40891E+07-1.55002E+08-9.07516E-06-1.55002E+08
 -1        57-2.44342E-05-4.96097E-05-2.86289E-05-3.78341E+08 1.63279E+07 5.22938E-07
 -1        58 1.18391E-05 1.72467E-05-1.05159E-06 2.71964E-06 1.30278E-06-1.56328E-06
 -1        59 1.40797E-05-1.56239E-05 5.41285E-06-2.02010E-06-1.63279E+07-3.78341E+08
 -1        60-4.65908E+07 1.02001E+05-1.02082E+07 3.01710E+08 5.27849E+05-3.19139E+06
 -1        61 3.82587E-06-5.50319E-06-4.07844E-06 2.00517E+08 1.78274E+06 3.22028E-06
 -1        62 3.10614E-06 3.25619E-06 4.60516E-06 5.48537E-06-1.78274E+06 2.00517E+08
 -1        63 4.65908E+07 1.02082E+07-1.02001E+05-3.19139E+06-5.27849E+05 3.01710E+08
 -1        64 2.01184E-05 3.36980E-05 1.83214E-05-5.05223E+08 2.31059E+06 1.76532E-06
 -1        65-4.46060E-06-8.16598E+06 8.16598E+06-9.81335E+07 4.16917E-06 9.81335E+07
 -1        66 6.15790E-06-1.77324E-05-1.07773E-05 3.78341E+08 1.63279E+07-2.91038E-07
 -1        67 2.63611E-05-3.40891E+07 3.40891E+07 1.55002E+08 2.27371E-06-1.55002E+08
 -1        68 1.63551E-05 2.51835E-05 1.14871E-05-2.00517E+08 1.78274E+06 3.14671E-06
 -1        69 4.65908E+07-1.02001E+05 1.02082E+07-3.01710E+08 5.27849E+05-3.19139E+06
 -1        70-4.65908E+07-1.02082E+07 1.02001E+05 3.19139E+06-5.27849E+05 3.01710E+08
 -1        71 2.50459E-06-2.23709E+06 2.23709E+06 2.14934E+08 3.51719E-06 2.14934E+08
 -1        72-1.17172E-05-8.84710E-06-7.29924E-07 4.19847E+08-1.49766E+05-3.02680E-09
 -1        73-1.10997E-05-1.49848E-05-4.05301E-06-7.72858E-06-3.18939E-07-5.28514E-06
 -1        74 1.89086E-05 3.07984E-05 1.32024E-05-3.13949E-06 1.49766E+05 4.19847E+08
 -1        75-8.17859E-06-6.29576E+06 6.29576E+06 2.58157E+08-4.46116E-06 2.58157E+08
 -1        76 5.37140E-07-2.01305E-05-6.32997E-06 5.66734E+08-3.54967E+06 1.76113E-06
 -1        77-1.01734E-06-1.36169E-06-6.23145E-06-7.81380E-07 5.24681E-07-7.68341E-08
 -1        78-1.56749E-05-1.28027E-05-3.04217E-06-2.14018E-06 3.54967E+06 5.66734E+08
 -1        79 1.69065E+07-1.21353E+06 1.06837E+06 3.17472E+08 2.80654E+05 8.16239E+07
 -1        80-1.16063E-05-1.17940E-05-2.87103E-06 1.84515E+08-4.30420E+05-2.25147E-06
 -1        81-4.54587E-07-2.92497E-06-3.26429E-07-5.40284E-06 4.30420E+05 1.84515E+08
 -1        82-1.69065E+07-1.06837E+06 1.21353E+06 8.16239E+07-2.80654E+05 3.17472E+08
 -1        83-1.01291E-05-2.35825E-05-2.35508E-06-4.19847E+08-1.49766E+05-4.56348E-08
 -1        84 3.95035E-06 2.23709E+06-2.23709E+06-2.14934E+08-9.88573E-06 2.14934E+08
 -1        85-4.04846E-06 6.83405E-06 1.06473E-06-5.66734E+08-3.54967E+06 7.77189E-07
 -1        86-2.65113E-05 6.29576E+06-6.29576E+06-2.58157E+08 4.43342E-06 2.58157E+08
 -1        87-9.32762E-06-1.60976E-05-2.47686E-06-1.84515E+08-4.30420E+05-2.54973E-06
 -1        88-1.69065E+07 1.21353E+06-1.06837E+06-3.17472E+08 2.80654E+05 8.16239E+07
 -1        89 1.69065E+07 1.06837E+06-1.21353E+06-8.16239E+07-2.80654E+05 3.17472E+08
 -1        90-2.79911E-05 5.45644E+01-5.45645E+01-6.20368E+08-8.07359E-07-6.20368E+08
 -1        91-1.65037E-05-7.29341E-06-7.16501E-06-6.17604E+08-6.27982E+00 6.28969E-06
 -1        92-2.08938E-05-8.82544E-06-8.84800E-06 1.93086E-05 1.71095E-07 7.62288E-06
 -1        93-3.46046E-05-1.49385E-05-1.46890E-05 2.08323E-05 6.27982E+00-6.17604E+08
 -1        94-7.90126E-06-5.37733E+06 5.37733E+06-2.51020E+08-6.36585E-07-2.51020E+08
 -1        95-1.45896E-05 7.07805E-07 8.92207E-07-1.48141E+08-2.20422E+06 6.95698E-07
 -1        96-1.44689E-05-6.32975E-06-2.50767E-06 1.43773E-06-4.30972E-07-1.04588E-06
 -1        97 3.41563E-06 1.93487E-05 9.09995E-06 4.45172E-06 2.20422E+06-1.48141E+08
 -1        98 2.23658E+07 9.58527E+06 9.58540E+06-6.19085E+08-1.93142E+00-3.09871E+08
 -1        99-1.81967E-05-7.69530E-06-7.66747E-06-3.08979E+08-4.34378E+00 6.97188E-06
 -1       100-2.84113E-05-1.22112E-05-1.18735E-05 1.95280E-05 4.34378E+00-3.08979E+08
 -1       101-2.23658E+07-9.58540E+06-9.58527E+06-3.09871E+08 1.93142E+00-6.19085E+08
 -1       102-2.61981E-05-1.09875E-05-1.13459E-05 6.17604E+08-6.27982E+00 8.86247E-06
 -1       103-4.04817E-05-5.45645E+01 5.45644E+01 6.20368E+08 3.04935E-07-6.20368E+08
 -1       104-1.09104E-05-9.62149E-06-6.48201E-07 1.48141E+08-2.20422E+06 2.43634E-06
 -1       105-2.21678E-06 5.37733E+06-5.37733E+06 2.51020E+08-5.17309E-06-2.51020E+08
 -1       106-2.42453E-05-1.03329E-05-1.02052E-05 3.08979E+08-4.34378E+00 8.15094E-06
 -1       107-2.23658E+07-9.58527E+06-9.58540E+06 6.19085E+08-1.93142E+00-3.09871E+08
 -1       108 2.23658E+07 9.58540E+06 9.58527E+06 3.09871E+08 1.93143E+00-6.19085E+08
 -1       109-2.29385E-05-3.64106E+07 3.64106E+07 4.14877E+07 6.53816E-05-4.14877E+07
 -1       110 4.52995E-06 3.70666E-07 4.31165E-05 7.86176E-06-1.72651E+07-2.79967E+08
 -1       111 2.24719E-05 3.96250E+06-3.96250E+06 2.40677E+08-9.28640E-08-2.40677E+08
 -1       112 2.53362E-05 3.79276E-05-1.30972E-05-1.82014E-06 3.53354E+05-8.75176E+08
 -1       113 2.51792E+07-3.80108E+07 1.48361E+07 1.60948E+08 8.37478E+06 1.11807E+07
 -1       114-2.51792E+07-1.48361E+07 3.80108E+07-1.11807E+07-8.37478E+06-1.60948E+08
 -1       115-3.79421E-06-5.68852E-06 6.69435E-06-5.87798E-06-8.89036E+06-1.09355E+08
 -1       116-2.90903E-05-7.24872E+06 7.24872E+06 1.78499E+08 4.01400E-06-1.78499E+08
 -1       117 3.48692E-05 8.89904E-05 2.82428E-05 9.70438E-07-3.96810E+06-6.19199E+08
 -1       118-5.12788E+07-7.90281E+06-1.18245E+07 5.57980E+08 3.88377E+05-3.95998E+07
 -1       119 5.12788E+07 1.18245E+07 7.90281E+06 3.95998E+07-3.88377E+05-5.57980E+08
 -1       120-2.87195E-05-8.83350E-05-5.52822E-05 3.30935E-06 7.41731E+05-3.57171E+08
 -1       121-2.43033E-05 3.64106E+07-3.64106E+07-4.14877E+07-4.06402E-05-4.14877E+07
 -1       122-9.78419E-06-3.96250E+06 3.96250E+06-2.40677E+08 1.85920E-05-2.40677E+08
 -1       123 2.51792E+07 1.48361E+07-3.80108E+07 1.11807E+07-8.37478E+06-1.60948E+08
 -1       124-2.51792E+07 3.80108E+07-1.48361E+07-1.60948E+08 8.37478E+06 1.11807E+07
 -1       125-5.26334E-05 7.24872E+06-7.24872E+06-1.78499E+08 1.01148E-05-1.78499E+08
 -1       126-5.12788E+07-1.18245E+07-7.90281E+06-3.95998E+07-3.88377E+05-5.57980E+08
 -1       127 5.12788E+07 7.90281E+06 1.18245E+07-5.57980E+08 3.88377E+05-3.95998E+07
 -1       128 2.75201E-05 1.11123E+06-1.11123E+06-2.75081E+08 1.01002E-06 2.75081E+08
 -1       129-2.31623E-05-5.39158E-05-9.64128E-06 9.31905E-08 2.15911E+05 1.12431E+09
 -1       130 4.04567E-05 4.05771E+07-4.05771E+07-4.14048E+07-4.76686E-06 4.14048E+07
 -1       131 2.63192E-05 2.81781E-05 2.39164E-06 2.20339E-06 1.93044E+07 1.52321E+08
 -1       132-1.02816E+07-1.08716E+06-2.43584E+06-6.99850E+08 1.54469E+04 2.85289E+07
 -1       133 1.02816E+07 2.43584E+06 1.08716E+06-2.85289E+07-1.54469E+04 6.99850E+08
 -1       134 1.45345E-07-6.39955E-06-4.50003E-07-1.59408E-06 2.31358E+05 4.53987E+08
 -1       135 3.77884E-05-1.11123E+06 1.11123E+06 2.75081E+08-1.27847E-05 2.75081E+08
 -1       136 4.96297E-06-4.05771E+07 4.05771E+07 4.14048E+07 8.99764E-06 4.14048E+07
 -1       137-1.02816E+07-2.43584E+06-1.08716E+06 2.85289E+07-1.54469E+04 6.99850E+08
 -1       138 1.02816E+07 1.08716E+06 2.43584E+06 6.99850E+08 1.54469E+04 2.85289E+07
 -1       139 3.20952E-05-8.16598E+06 8.16598E+06 9.81335E+07 1.21817E-06-9.81335E+07
 -1       140 1.15614E-05-1.55889E-05-7.51112E-06 7.53207E-07-2.31059E+06-5.05223E+08
 -1       141 2.67942E-06-3.40891E+07 3.40891E+07-1.55002E+08 1.56625E-06 1.55002E+08
 -1       142-8.47317E-06-1.82111E-05 1.00955E-06 1.80909E-07-1.63279E+07 3.78341E+08
 -1       143 4.65908E+07-1.02001E+05 1.02082E+07 3.01710E+08 5.27849E+05 3.19139E+06
 -1       144-4.65908E+07-1.02082E+07 1.02001E+05-3.19139E+06-5.27849E+05-3.01710E+08
 -1       145 7.97451E-06-8.90822E-06-5.76861E-06 5.03601E-06-1.78274E+06-2.00517E+08
 -1       146 9.53039E-06 8.16598E+06-8.16598E+06-9.81335E+07-1.17340E-05-9.81335E+07
 -1       147 2.80849E-05 3.40891E+07-3.40891E+07 1.55002E+08-2.87742E-06 1.55002E+08
 -1       148 4.65908E+07 1.02082E+07-1.02001E+05 3.19139E+06-5.27849E+05-3.01710E+08
 -1       149-4.65908E+07 1.02001E+05-1.02082E+07-3.01710E+08 5.27849E+05 3.19139E+06
 -1       150-2.15127E-05 2.23709E+06-2.23709E+06 2.14934E+08-2.67044E-06-2.14934E+08
 -1       151-2.40025E-05-1.15589E-05-8.64547E-06-3.08175E-06 1.49766E+05-4.19847E+08
 -1       152 3.17718E-05 6.29576E+06-6.29576E+06 2.58157E+08-1.31046E-06-2.58157E+08
 -1       153 1.26783E-05-1.87848E-06 1.62283E-06-1.01142E-06 3.54967E+06-5.66734E+08
 -1       154-1.69065E+07 1.21353E+06-1.06837E+06 3.17472E+08 2.80654E+05-8.16239E+07
 -1       155 1.69065E+07 1.06837E+06-1.21353E+06 8.16239E+07-2.80654E+05-3.17472E+08
 -1       156-1.30176E-05-2.51792E-06-9.99127E-07-5.36349E-06 4.30420E+05-1.84515E+08
 -1       157-1.06596E-05-2.23709E+06 2.23709E+06-2.14934E+08-2.55513E-06-2.14934E+08
 -1       158 8.09408E-06-6.29576E+06 6.29576E+06-2.58157E+08-4.39290E-07-2.58157E+08
 -1       159-1.69065E+07-1.06837E+06 1.21353E+06-8.16239E+07-2.80654E+05-3.17472E+08
 -1       160 1.69065E+07-1.21353E+06 1.06837E+06-3.17472E+08 2.80654E+05-8.16239E+07
 -1       161-9.39937E-07-5.45644E+01 5.45644E+01-6.20368E+08-3.94037E-07 6.20368E+08
 -1       162-5.14325E-06-2.18036E-06-1.70562E-06 1.79224E-05 6.27982E+00 6.17604E+08
 -1       163-1.75630E-05 5.37733E+06-5.37733E+06-2.51020E+08 9.26666E-08 2.51020E+08
 -1       164-1.95741E-05-3.82215E-06-8.00006E-07 3.10503E-06 2.20422E+06 1.48141E+08
 -1       165-2.23658E+07-9.58527E+06-9.58540E+06-6.19085E+08-1.93142E+00 3.09871E+08
 -1       166 2.23658E+07 9.58540E+06 9.58527E+06-3.09871E+08 1.93143E+00 6.19085E+08
 -1       167-1.28854E-05-5.58332E-06-5.74726E-06 1.85166E-05 4.34378E+00 3.08979E+08
 -1       168-9.15251E-06 5.45644E+01-5.45644E+01 6.20368E+08-4.82011E-07 6.20368E+08
 -1       169-7.68785E-06-5.37733E+06 5.37733E+06 2.51020E+08 8.20611E-07 2.51020E+08
 -1       170-2.23658E+07-9.58540E+06-9.58527E+06 3.09871E+08 1.93143E+00 6.19085E+08
 -1       171 2.23658E+07 9.58527E+06 9.58540E+06 6.19085E+08-1.93143E+00 3.09871E+08
 -3
    1PSTEP                        33           1           1          
    1PGM                1.000000E+00                                  
    1PGK                1.256155E+07                                  
    1PHID                         -1                                  
    1PSUBC                         0                                  
    1PMODE                        17                                  
  100CL  117 5.64081E+02         171                     2   17MODAL      1
 -4  DISP        4    1
 -5  D1          1    2    1    0
 -5  D2          1    2    2    0
 -5  D3          1    2    3    0
 -5  ALL         1    2    0    0    1ALL
 -1         1 9.12452E-03-5.81046E-03 4.98194E-03
 -1         2 4.23222E-03-5.35977E-03 4.85389E-03
 -1         3-2.51535E-17-5.53087E-03 4.66405E-03
 -1         4 5.01879E-03-5.75600E-03 4.51976E-03
 -1         5-3.50230E-03 1.38249E-03-1.08640E-03
 -1         6-1.67748E-03 1.77209E-03-1.24889E-03
 -1         7-8.23994E-18 1.63751E-03-1.38087E-03
 -1         8-1.98924E-03 1.48100E-03-1.49436E-03
 -1         9 6.46457E-03-5.50280E-03 4.97158E-03
 -1        10 1.93071E-03-5.52326E-03 4.68457E-03
 -1        11 2.28953E-03-5.55521E-03 4.65763E-03
 -1        12 6.90530E-03-5.85725E-03 4.68355E-03
 -1        13 3.37456E-03 2.16207E-03-1.64907E-03
 -1        14 1.54882E-03 2.86303E-03-1.99132E-03
 -1        15-1.36609E-17 2.57698E-03-2.17310E-03
 -1        16 1.83667E-03 2.36141E-03-2.41432E-03
 -1        17-2.36599E-03 1.58565E-03-1.15553E-03
 -1        18-6.46503E-04 1.69338E-03-1.32156E-03
 -1        19-7.66658E-04 1.56717E-03-1.42798E-03
 -1        20-2.57260E-03 1.41955E-03-1.29756E-03
 -1        21-4.23222E-03-5.35977E-03 4.85389E-03
 -1        22 7.75813E-04-5.33101E-03 4.41338E-03
 -1        23 1.67748E-03 1.77209E-03-1.24889E-03
 -1        24-2.97783E-04 1.84612E-03-1.63620E-03
 -1        25-1.93071E-03-5.52326E-03 4.68457E-03
 -1        26-2.02335E-03-5.25076E-03 4.74794E-03
 -1        27 3.16012E-03-5.66867E-03 4.38467E-03
 -1        28-1.54882E-03 2.86303E-03-1.99132E-03
 -1        29 2.86922E-04 3.17881E-03-2.85477E-03
 -1        30 6.46503E-04 1.69338E-03-1.32156E-03
 -1        31 1.00509E-03 1.81674E-03-1.44311E-03
 -1        32-1.42499E-03 1.66206E-03-1.57160E-03
 -1        33 3.93618E-03-7.31259E-04 5.88423E-04
 -1        34 1.88138E-03-8.54437E-04 6.45908E-04
 -1        35-5.14996E-18-8.11743E-04 6.84523E-04
 -1        36 2.23104E-03-7.65951E-04 7.20526E-04
 -1        37-8.87793E-04-3.02477E-03 2.43222E-03
 -1        38-4.30754E-04-3.50200E-03 2.67078E-03
 -1        39-8.67362E-18-3.31949E-03 2.79924E-03
 -1        40-5.10810E-04-3.16715E-03 2.95315E-03
 -1        41 2.72657E-03-8.00459E-04 6.10972E-04
 -1        42 7.83485E-04-8.25774E-04 6.71764E-04
 -1        43 9.29098E-04-7.96613E-04 6.96355E-04
 -1        44 2.94313E-03-7.41205E-04 6.60964E-04
 -1        45-1.88138E-03-8.54437E-04 6.45908E-04
 -1        46 3.34674E-04-8.96070E-04 7.83864E-04
 -1        47 4.30754E-04-3.50200E-03 2.67078E-03
 -1        48-7.54847E-05-3.71656E-03 3.25258E-03
 -1        49-7.83485E-04-8.25774E-04 6.71764E-04
 -1        50-1.03248E-03-8.82444E-04 7.08366E-04
 -1        51 1.51455E-03-8.23335E-04 7.58187E-04
 -1        52-3.84128E-03-1.91550E-04 1.54342E-04
 -1        53-1.84758E-03-2.24312E-04 1.68206E-04
 -1        54 1.70220E-17-2.10829E-04 1.77787E-04
 -1        55-2.19096E-03-1.99468E-04 1.89157E-04
 -1        56 2.41697E-04 2.95763E-03-2.37131E-03
 -1        57 1.15058E-04 3.45880E-03-2.61935E-03
 -1        58-1.62630E-19 3.26880E-03-2.75650E-03
 -1        59 1.36442E-04 3.10616E-03-2.91673E-03
 -1        60-2.67983E-03-2.08111E-04 1.59281E-04
 -1        61-7.81757E-04-2.16491E-04 1.73303E-04
 -1        62-9.27048E-04-2.05512E-04 1.82562E-04
 -1        63-2.88931E-03-1.94169E-04 1.71920E-04
 -1        64 1.84758E-03-2.24312E-04 1.68206E-04
 -1        65-3.26605E-04-2.33512E-04 2.04102E-04
 -1        66-1.15058E-04 3.45880E-03-2.61935E-03
 -1        67 2.05503E-05 3.67445E-03-3.22135E-03
 -1        68 7.81757E-04-2.16491E-04 1.73303E-04
 -1        69 9.95119E-04-2.28980E-04 1.90137E-04
 -1        70-1.46864E-03-2.20189E-04 1.96668E-04
 -1        71 4.19117E-03 1.19680E-03-9.53883E-04
 -1        72 1.97638E-03 1.47654E-03-1.07820E-03
 -1        73 3.38271E-17 1.40265E-03-1.18282E-03
 -1        74 2.34369E-03 1.27858E-03-1.24513E-03
 -1        75 6.74818E-04-2.88603E-03 2.30694E-03
 -1        76 3.30189E-04-3.42643E-03 2.56574E-03
 -1        77 2.47198E-17-3.22932E-03 2.72320E-03
 -1        78 3.91555E-04-3.04258E-03 2.88942E-03
 -1        79 2.98553E-03 1.33523E-03-1.01524E-03
 -1        80 9.03227E-04 1.44060E-03-1.12938E-03
 -1        81 1.07109E-03 1.33928E-03-1.21482E-03
 -1        82 3.19303E-03 1.23833E-03-1.09851E-03
 -1        83-1.97638E-03 1.47654E-03-1.07820E-03
 -1        84 3.56354E-04 1.51993E-03-1.33707E-03
 -1        85-3.30189E-04-3.42643E-03 2.56574E-03
 -1        86 5.73764E-05-3.62615E-03 3.18462E-03
 -1        87-9.03227E-04 1.44060E-03-1.12938E-03
 -1        88-9.57573E-04 1.49556E-03-1.21608E-03
 -1        89 1.48291E-03 1.40769E-03-1.28864E-03
 -1        90 0.00000E+00 0.00000E+00 0.00000E+00
 -1        91 0.00000E+00 0.00000E+00 0.00000E+00
 -1        92 0.00000E+00 0.00000E+00 0.00000E+00
 -1        93 0.00000E+00 0.00000E+00 0.00000E+00
 -1        94 1.14548E-04 3.80172E-03-3.14780E-03
 -1        95 2.69029E-05 4.04655E-03-3.26245E-03
 -1        96 2.12504E-17 3.94753E-03-3.32886E-03
 -1        97 3.19028E-05 3.86878E-03-3.41235E-03
 -1        98 0.00000E+00 0.00000E+00 0.00000E+00
 -1        99 0.00000E+00 0.00000E+00 0.00000E+00
 -1       100 0.00000E+00 0.00000E+00 0.00000E+00
 -1       101 0.00000E+00 0.00000E+00 0.00000E+00
 -1       102 0.00000E+00 0.00000E+00 0.00000E+00
 -1       103 0.00000E+00 0.00000E+00 0.00000E+00
 -1       104-2.69029E-05 4.04655E-03-3.26245E-03
 -1       105 9.73944E-06 4.14093E-03-3.55005E-03
 -1       106 0.00000E+00 0.00000E+00 0.00000E+00
 -1       107 0.00000E+00 0.00000E+00 0.00000E+00
 -1       108 0.00000E+00 0.00000E+00 0.00000E+00
 -1       109-7.75813E-04-5.33101E-03 4.41338E-03
 -1       110-5.01879E-03-5.75600E-03 4.51976E-03
 -1       111 2.97783E-04 1.84612E-03-1.63620E-03
 -1       112 1.98924E-03 1.48100E-03-1.49436E-03
 -1       113 2.02335E-03-5.25076E-03 4.74794E-03
 -1       114-3.16012E-03-5.66867E-03 4.38467E-03
 -1       115-2.28953E-03-5.55521E-03 4.65763E-03
 -1       116-2.86922E-04 3.17881E-03-2.85477E-03
 -1       117-1.83667E-03 2.36141E-03-2.41432E-03
 -1       118-1.00509E-03 1.81674E-03-1.44311E-03
 -1       119 1.42499E-03 1.66206E-03-1.57160E-03
 -1       120 7.66658E-04 1.56717E-03-1.42798E-03
 -1       121-9.12452E-03-5.81046E-03 4.98194E-03
 -1       122 3.50230E-03 1.38249E-03-1.08640E-03
 -1       123-6.90530E-03-5.85725E-03 4.68355E-03
 -1       124-6.46457E-03-5.50280E-03 4.97158E-03
 -1       125-3.37456E-03 2.16207E-03-1.64907E-03
 -1       126 2.57260E-03 1.41955E-03-1.29756E-03
 -1       127 2.36599E-03 1.58565E-03-1.15553E-03
 -1       128-3.34674E-04-8.96070E-04 7.83864E-04
 -1       129-2.23104E-03-7.65951E-04 7.20526E-04
 -1       130 7.54847E-05-3.71656E-03 3.25258E-03
 -1       131 5.10810E-04-3.16715E-03 2.95315E-03
 -1       132 1.03248E-03-8.82444E-04 7.08366E-04
 -1       133-1.51455E-03-8.23335E-04 7.58187E-04
 -1       134-9.29098E-04-7.96613E-04 6.96355E-04
 -1       135-3.93618E-03-7.31259E-04 5.88423E-04
 -1       136 8.87793E-04-3.02477E-03 2.43222E-03
 -1       137-2.94313E-03-7.41205E-04 6.60964E-04
 -1       138-2.72657E-03-8.00459E-04 6.10972E-04
 -1       139 3.26605E-04-2.33512E-04 2.04102E-04
 -1       140 2.19096E-03-1.99468E-04 1.89157E-04
 -1       141-2.05503E-05 3.67445E-03-3.22135E-03
 -1       142-1.36442E-04 3.10616E-03-2.91673E-03
 -1       143-9.95119E-04-2.28980E-04 1.90137E-04
 -1       144 1.46864E-03-2.20189E-04 1.96668E-04
 -1       145 9.27048E-04-2.05512E-04 1.82562E-04
 -1       146 3.84128E-03-1.91550E-04 1.54342E-04
 -1       147-2.41697E-04 2.95763E-03-2.37131E-03
 -1       148 2.88931E-03-1.94169E-04 1.71920E-04
 -1       149 2.67983E-03-2.08111E-04 1.59281E-04
 -1       150-3.56354E-04 1.51993E-03-1.33707E-03
 -1       151-2.34369E-03 1.27858E-03-1.24513E-03
 -1       152-5.73764E-05-3.62615E-03 3.18462E-03
 -1       153-3.91555E-04-3.04258E-03 2.88942E-03
 -1       154 9.57573E-04 1.49556E-03-1.21608E-03
 -1       155-1.48291E-03 1.40769E-03-1.28864E-03
 -1       156-1.07109E-03 1.33928E-03-1.21482E-03
 -1       157-4.19117E-03 1.19680E-03-9.53883E-04
 -1       158-6.74818E-04-2.88603E-03 2.30694E-03
 -1       159-3.19303E-03 1.23833E-03-1.09851E-03
 -1       160-2.98553E-03 1.33523E-03-1.01524E-03
 -1       161 0.00000E+00 0.00000E+00 0.00000E+00
 -1       162 0.00000E+00 0.00000E+00 0.00000E+00
 -1       163-9.73944E-06 4.14093E-03-3.55005E-03
 -1       164-3.19028E-05 3.86878E-03-3.41235E-03
 -1       165 0.00000E+00 0.00000E+00 0.00000E+00
 -1       166 0.00000E+00 0.00000E+00 0.00000E+00
 -1       167 0.00000E+00 0.00000E+00 0.00000E+00
 -1       168 0.00000E+00 0.00000E+00 0.00000E+00
 -1       169-1.14548E-04 3.80172E-03-3.14780E-03
 -1       170 0.00000E+00 0.00000E+00 0.00000E+00
 -1       171 0.00000E+00 0.00000E+00 0.00000E+00
 -3
    1PSTEP                        34           1           1          
    1PGM                1.000000E+00                                  
    1PGK                1.256155E+07                                  
    1PHID                         -1                                  
    1PSUBC                         0                                  
    1PMODE                        17                                  
  100CL  117 5.64081E+02         171                     2   17MODAL      1
 -4  STRESS      6    1
 -5  SXX         1    4    1    1
 -5  SYY         1    4    2    2
 -5  SZZ         1    4    3    3
 -5  SXY         1    4    1    2
 -5  SYZ         1    4    2    3
 -5  SZX         1    4    3    1
 -1         1 1.04758E+09 9.69585E+06 2.46337E+07-6.56588E+07-5.05030E+07 5.27295E+07
 -1         2 4.75873E+08 2.34743E+07-4.51650E+07-3.85779E+08-4.92071E+07 5.31814E+07
 -1         3-4.25801E-06-4.16860E-06-2.89828E-06-3.34833E+08 2.32831E-06 2.82357E+08
 -1         4 5.64315E+08-5.35590E+07 2.78371E+07-6.30653E+07-4.14951E+07 3.25318E+08
 -1         5 5.99946E+08 1.35857E+07 9.39760E+06 7.81362E+07 2.51985E+07-5.90935E+07
 -1         6 2.84950E+08-6.32544E+04 2.19890E+07 4.49837E+08 1.84576E+07-6.31734E+07
 -1         7-1.85706E-06 2.76789E-06-8.66503E-06 3.78575E+08-5.86268E-07-3.19243E+08
 -1         8 3.37908E+08 2.60757E+07-7.50104E+04 7.49144E+07 1.55648E+07-3.79337E+08
 -1         9 7.22124E+08 3.25949E+07-1.25340E+07-2.14812E+08-3.51211E+07 5.36226E+07
 -1        10 2.05452E+08 1.61512E+07-9.45818E+06-3.55445E+08-1.26620E+07 1.65165E+08
 -1        11 2.43636E+08-1.12160E+07 1.91530E+07-1.95862E+08-1.06776E+07 2.99738E+08
 -1        12 7.75098E+08-2.55068E+07 3.99990E+07-6.38120E+07-2.85138E+07 1.77150E+08
 -1        13 1.28522E+09 4.24134E+07 3.25958E+07 1.12280E+06 3.65532E+07-1.10606E+06
 -1        14 5.96192E+08-1.84014E+07 3.57593E+07 1.19962E+07 1.38641E+07-1.45549E+06
 -1        15-3.58932E-06-4.65475E-06-1.68569E-06 9.35054E+06 7.23638E-07-7.88508E+06
 -1        16 7.06995E+08 4.24053E+07-2.18213E+07 1.72599E+06 1.16913E+07-1.01161E+07
 -1        17 4.25244E+08-2.85918E+07-1.06823E+06 2.57451E+08 1.48886E+07-5.93593E+07
 -1        18 1.27200E+08-1.58708E+07-1.93968E+07 4.04236E+08 2.32536E+06-1.92767E+08
 -1        19 1.50840E+08-2.30017E+07-1.88204E+07 2.28593E+08 1.96092E+06-3.40883E+08
 -1        20 4.54778E+08 6.42999E+06-2.48241E+07 7.20274E+07 1.21568E+07-2.10832E+08
 -1        21-4.75873E+08-2.34743E+07 4.51650E+07-3.85779E+08 4.92071E+07 5.31814E+07
 -1        22 8.90705E+07-8.63846E+07 8.93035E+07-8.10648E+07 4.29402E+06 7.09988E+07
 -1        23-2.84950E+08 6.32544E+04-2.19890E+07 4.49837E+08-1.84576E+07-6.31734E+07
 -1        24 5.10104E+07 2.56057E+07-2.36515E+07 1.17817E+08-2.14250E+06-1.06149E+08
 -1        25-2.05452E+08-1.61512E+07 9.45818E+06-3.55445E+08 1.26620E+07 1.65165E+08
 -1        26-2.47869E+08-4.04540E+07 7.46708E+07-2.38141E+08 4.15601E+07 5.49271E+07
 -1        27 3.75171E+08-7.79052E+07 4.66263E+07-6.49120E+07-3.61495E+07 2.04814E+08
 -1        28-5.96192E+08 1.84014E+07-3.57593E+07 1.19962E+07-1.38641E+07-1.45549E+06
 -1        29 1.09276E+08 6.09227E+07-5.45450E+07 1.93240E+05-3.10794E+06-3.73113E+03
 -1        30-1.27200E+08 1.58708E+07 1.93968E+07 4.04236E+08-2.32536E+06-1.92767E+08
 -1        31-1.36264E+08-2.44270E+07-4.38662E+07 2.94054E+08-1.72149E+07-6.89109E+07
 -1        32 2.11088E+08 4.43221E+07 1.98854E+07 8.00820E+07 1.49154E+07-2.54238E+08
 -1        33-2.54985E+08-2.09096E+07-1.95429E+07-6.22015E+07-5.81623E+06 4.45843E+07
 -1        34-1.24620E+08-9.00848E+06-1.41640E+07-3.81111E+08-3.86326E+06 4.79988E+07
 -1        35 1.96998E-06 7.07339E-07 7.21170E-06-3.13824E+08-4.01220E-06 2.64640E+08
 -1        36-1.47781E+08-1.67964E+07-1.06827E+07-5.69195E+07-3.25779E+06 3.21381E+08
 -1        37-7.71672E+08-5.30850E+07-3.95981E+07-1.84120E+06-6.19011E+07 3.63576E+06
 -1        38-3.69608E+08 1.06826E+07-5.63946E+07 4.19716E+07-3.42894E+07 4.16900E+06
 -1        39 3.53903E-07 1.95205E-06 2.68221E-07 2.83984E+07-2.52947E-06-2.39477E+07
 -1        40-4.38301E+08-6.68757E+07 1.26680E+07-4.94381E+06-2.89154E+07-3.53936E+07
 -1        41-1.84516E+08-1.02360E+07-1.38413E+07-2.15860E+08-3.72441E+06 4.59132E+07
 -1        42-5.75296E+07-1.69736E+06-2.32202E+06-3.40690E+08-8.60156E+05 1.56183E+08
 -1        43-6.82216E+07-2.75357E+06-2.01282E+06-1.85211E+08-7.25349E+05 2.87296E+08
 -1        44-1.97155E+08-1.63837E+07-1.12205E+07-5.72455E+07-3.19514E+06 1.76163E+08
 -1        45 1.24620E+08 9.00848E+06 1.41640E+07-3.81111E+08 3.86326E+06 4.79988E+07
 -1        46-2.16801E+07-9.75646E+06 6.31699E+06-1.08140E+08 4.94525E+05 9.90603E+07
 -1        47 3.69608E+08-1.06826E+07 5.63946E+07 4.19716E+07 3.42894E+07 4.16900E+06
 -1        48-6.56114E+07-8.32515E+07 7.53711E+07 1.03203E+07 5.26314E+06-1.07860E+07
 -1        49 5.75296E+07 1.69736E+06 2.32202E+06-3.40690E+08 8.60156E+05 1.56183E+08
 -1        50 5.81040E+07 4.87743E+06 1.36658E+07-2.50105E+08 3.40661E+06 6.22557E+07
 -1        51-9.05556E+07-1.62357E+07-6.70177E+06-7.10268E+07-2.81827E+06 2.16774E+08
 -1        52-8.35280E+07-1.63987E+07-1.57782E+07 7.85779E+07-1.30065E+06-5.75973E+07
 -1        53-4.42420E+07-8.41173E+06-1.14733E+07 3.76696E+08-2.92769E+06-6.03608E+07
 -1        54-6.07106E-06-4.80516E-06-4.97280E-06 3.09021E+08 1.33406E-06-2.60590E+08
 -1        55-5.24645E+07-1.36056E+07-9.97507E+06 7.15790E+07-2.46885E+06-3.17658E+08
 -1        56 8.12136E+08 6.44379E+07 5.01314E+07 4.14476E+06 6.62192E+07-3.70567E+06
 -1        57 3.90669E+08-6.62655E+06 6.58378E+07-1.05413E+07 3.78697E+07-3.99680E+06
 -1        58-1.89245E-06-2.30223E-06 4.03821E-06-7.65787E+06-1.19768E-06 6.45770E+06
 -1        59 4.63276E+08 7.80739E+07-7.85811E+06 4.73962E+06 3.19346E+07 8.88926E+06
 -1        60-6.79856E+07-1.15394E+07-1.41632E+07 2.23684E+08-9.88843E+05-5.85226E+07
 -1        61-2.54387E+07-3.96940E+06-4.99002E+06 3.36590E+08-7.48617E+05-1.60370E+08
 -1        62-3.01665E+07-5.91742E+06-4.70713E+06 1.90175E+08-6.31290E+05-2.83838E+08
 -1        63-7.12868E+07-1.56706E+07-1.21609E+07 7.28643E+07-5.37660E+05-1.82976E+08
 -1        64 4.42420E+07 8.41173E+06 1.14733E+07 3.76696E+08 2.92769E+06-6.03608E+07
 -1        65-7.10197E+06-5.01714E+06 2.28130E+06 1.29169E+08 1.10588E+05-1.17590E+08
 -1        66-3.90669E+08 6.62655E+06-6.58378E+07-1.05413E+07-3.78697E+07-3.99680E+06
 -1        67 6.90519E+07 8.90017E+07-7.92604E+07 2.91586E+06-5.63029E+06-2.24838E+06
 -1        68 2.54387E+07 3.96940E+06 4.99002E+06 3.36590E+08 7.48617E+05-1.60370E+08
 -1        69 1.34924E+07 2.64684E+06 7.59605E+06 2.56677E+08 2.71813E+06-7.87525E+07
 -1        70-2.53341E+07-1.01327E+07-4.66195E+06 8.99236E+07-2.58834E+06-2.22100E+08
 -1        71 2.79880E+08-3.83680E+07-4.24454E+07-1.09564E+08 3.16115E+07 8.66154E+07
 -1        72 1.46197E+08-2.04784E+07-2.32749E+06-2.96359E+08 2.15702E+07 8.87471E+07
 -1        73 1.75927E-06 4.50946E-06 1.47335E-06-2.49448E+08-1.88081E-06 2.10354E+08
 -1        74 1.73368E+08-2.76006E+06-2.42843E+07-1.05241E+08 1.81896E+07 2.49912E+08
 -1        75-8.20899E+08-3.57271E+07-2.30532E+07-2.07940E+07-6.29228E+07 1.51693E+07
 -1        76-3.92115E+08 1.62555E+07-4.86213E+07 1.45073E+07-3.60446E+07 1.47014E+07
 -1        77-1.73599E-06 8.56817E-07-5.14090E-07 1.90060E+07-2.27243E-07-1.60273E+07
 -1        78-4.64990E+08-5.76577E+07 1.92766E+07-1.74337E+07-3.03955E+07-1.22337E+07
 -1        79 2.09145E+08-5.90871E+07-3.31105E+07-1.99909E+08 2.02538E+07 8.72536E+07
 -1        80 6.91635E+07-2.08341E+07-2.73488E+07-2.68380E+08 4.67896E+06 1.49552E+08
 -1        81 8.20177E+07-3.24316E+07-2.47061E+07-1.77347E+08 3.94565E+06 2.26318E+08
 -1        82 2.22767E+08-2.94044E+07-5.84907E+07-1.05747E+08 1.73480E+07 1.64645E+08
 -1        83-1.46197E+08 2.04784E+07 2.32749E+06-2.96359E+08-2.15702E+07 8.87471E+07
 -1        84 2.37968E+07 2.05421E+07-2.74132E+07-1.43291E+08-2.68777E+06 1.26611E+08
 -1        85 3.92115E+08-1.62555E+07 4.86213E+07 1.45073E+07 3.60446E+07 1.47014E+07
 -1        86-6.97970E+07-7.70296E+07 7.20318E+07-3.46060E+07 5.35001E+06 3.15483E+07
 -1        87-6.91635E+07 2.08341E+07 2.73488E+07-2.68380E+08-4.67896E+06 1.49552E+08
 -1        88-6.17459E+07-8.50566E+06-2.44516E+07-2.22872E+08-1.86865E+07 1.00550E+08
 -1        89 9.84692E+07 1.91362E+07-1.49140E+06-1.16960E+08 1.54894E+07 1.91876E+08
 -1        90-5.02530E+08-2.15367E+08-2.15367E+08 5.38846E+08-5.90468E+01-4.47586E+08
 -1        91-2.51571E+08-1.07814E+08-1.07815E+08 5.65752E+08-3.64267E+01-4.60443E+08
 -1        92 6.67060E-06 2.73925E-06 2.55648E-06 5.53361E+08 1.03901E-08-4.66636E+08
 -1        93-2.98326E+08-1.27852E+08-1.27852E+08 5.46017E+08-3.07178E+01-4.77085E+08
 -1        94 4.47783E+08 5.09286E+07 4.45883E+07 8.97499E+07 2.79078E+07-7.23001E+07
 -1        95 2.12397E+08 8.55608E+06 4.06236E+07 2.85387E+07 1.74412E+07-7.17546E+07
 -1        96 3.55765E-06 1.57207E-06-1.09337E-06 2.78603E+07-1.09151E-06-2.34939E+07
 -1        97 2.51871E+08 4.81736E+07 1.01463E+07 8.50904E+07 1.47078E+07-2.40660E+07
 -1        98-3.90259E+08-1.67258E+08-1.67258E+08 5.52255E+08 3.75907E+01-4.53993E+08
 -1        99-1.37216E+08-5.88086E+07-5.88084E+07 5.59607E+08 1.81512E+01-4.63506E+08
 -1       100-1.62718E+08-6.97381E+07-6.97383E+07 5.49649E+08 1.53064E+01-4.71903E+08
 -1       101-4.10427E+08-1.75901E+08-1.75901E+08 5.42468E+08 3.88741E+01-4.62306E+08
 -1       102 2.51571E+08 1.07814E+08 1.07815E+08 5.65752E+08 3.64267E+01-4.60443E+08
 -1       103-4.27276E+07-1.83117E+07-1.83114E+07 5.78604E+08 5.02046E+00-4.94733E+08
 -1       104-2.12397E+08-8.55608E+06-4.06236E+07 2.85387E+07-1.74412E+07-7.17546E+07
 -1       105 3.80728E+07 4.13452E+07-3.32238E+07 1.09505E+08-2.37286E+06-9.57268E+07
 -1       106 1.37216E+08 5.88086E+07 5.88084E+07 5.59607E+08-1.81512E+01-4.63506E+08
 -1       107 8.45570E+07 3.62386E+07 3.62382E+07 5.72087E+08 4.29673E+00-4.77923E+08
 -1       108-1.52635E+08-6.54153E+07-6.54157E+07 5.62647E+08-1.07982E+01-4.85824E+08
 -1       109-8.90705E+07 8.63846E+07-8.93035E+07-8.10648E+07-4.29402E+06 7.09988E+07
 -1       110-5.64315E+08 5.35590E+07-2.78371E+07-6.30653E+07 4.14951E+07 3.25318E+08
 -1       111-5.10104E+07-2.56057E+07 2.36515E+07 1.17817E+08 2.14250E+06-1.06149E+08
 -1       112-3.37908E+08-2.60757E+07 7.50104E+04 7.49144E+07-1.55648E+07-3.79337E+08
 -1       113 2.47869E+08 4.04540E+07-7.46708E+07-2.38141E+08-4.15601E+07 5.49271E+07
 -1       114-3.75171E+08 7.79052E+07-4.66263E+07-6.49120E+07 3.61495E+07 2.04814E+08
 -1       115-2.43636E+08 1.12160E+07-1.91530E+07-1.95862E+08 1.06776E+07 2.99738E+08
 -1       116-1.09276E+08-6.09227E+07 5.45450E+07 1.93240E+05 3.10794E+06-3.73113E+03
 -1       117-7.06995E+08-4.24053E+07 2.18213E+07 1.72599E+06-1.16913E+07-1.01161E+07
 -1       118 1.36264E+08 2.44270E+07 4.38662E+07 2.94054E+08 1.72149E+07-6.89109E+07
 -1       119-2.11088E+08-4.43221E+07-1.98854E+07 8.00820E+07-1.49154E+07-2.54238E+08
 -1       120-1.50840E+08 2.30017E+07 1.88204E+07 2.28593E+08-1.96092E+06-3.40883E+08
 -1       121-1.04758E+09-9.69585E+06-2.46337E+07-6.56588E+07 5.05030E+07 5.27295E+07
 -1       122-5.99946E+08-1.35857E+07-9.39760E+06 7.81362E+07-2.51985E+07-5.90935E+07
 -1       123-7.75098E+08 2.55068E+07-3.99990E+07-6.38120E+07 2.85138E+07 1.77150E+08
 -1       124-7.22124E+08-3.25949E+07 1.25340E+07-2.14812E+08 3.51211E+07 5.36226E+07
 -1       125-1.28522E+09-4.24134E+07-3.25958E+07 1.12280E+06-3.65532E+07-1.10606E+06
 -1       126-4.54778E+08-6.42999E+06 2.48241E+07 7.20274E+07-1.21568E+07-2.10832E+08
 -1       127-4.25244E+08 2.85918E+07 1.06823E+06 2.57451E+08-1.48886E+07-5.93593E+07
 -1       128 2.16801E+07 9.75646E+06-6.31699E+06-1.08140E+08-4.94525E+05 9.90603E+07
 -1       129 1.47781E+08 1.67964E+07 1.06827E+07-5.69195E+07 3.25779E+06 3.21381E+08
 -1       130 6.56114E+07 8.32515E+07-7.53711E+07 1.03203E+07-5.26314E+06-1.07860E+07
 -1       131 4.38301E+08 6.68757E+07-1.26680E+07-4.94381E+06 2.89154E+07-3.53936E+07
 -1       132-5.81040E+07-4.87743E+06-1.36658E+07-2.50105E+08-3.40661E+06 6.22557E+07
 -1       133 9.05556E+07 1.62357E+07 6.70177E+06-7.10268E+07 2.81827E+06 2.16774E+08
 -1       134 6.82216E+07 2.75357E+06 2.01282E+06-1.85211E+08 7.25349E+05 2.87296E+08
 -1       135 2.54985E+08 2.09096E+07 1.95429E+07-6.22015E+07 5.81623E+06 4.45843E+07
 -1       136 7.71672E+08 5.30850E+07 3.95981E+07-1.84120E+06 6.19011E+07 3.63576E+06
 -1       137 1.97155E+08 1.63837E+07 1.12205E+07-5.72455E+07 3.19514E+06 1.76163E+08
 -1       138 1.84516E+08 1.02360E+07 1.38413E+07-2.15860E+08 3.72441E+06 4.59132E+07
 -1       139 7.10197E+06 5.01714E+06-2.28130E+06 1.29169E+08-1.10588E+05-1.17590E+08
 -1       140 5.24645E+07 1.36056E+07 9.97507E+06 7.15790E+07 2.46885E+06-3.17658E+08
 -1       141-6.90519E+07-8.90017E+07 7.92604E+07 2.91586E+06 5.63029E+06-2.24838E+06
 -1       142-4.63276E+08-7.80739E+07 7.85811E+06 4.73962E+06-3.19346E+07 8.88926E+06
 -1       143-1.34924E+07-2.64684E+06-7.59605E+06 2.56677E+08-2.71813E+06-7.87525E+07
 -1       144 2.53341E+07 1.01327E+07 4.66195E+06 8.99236E+07 2.58834E+06-2.22100E+08
 -1       145 3.01665E+07 5.91742E+06 4.70713E+06 1.90175E+08 6.31290E+05-2.83838E+08
 -1       146 8.35280E+07 1.63987E+07 1.57782E+07 7.85779E+07 1.30065E+06-5.75973E+07
 -1       147-8.12136E+08-6.44379E+07-5.01314E+07 4.14476E+06-6.62192E+07-3.70567E+06
 -1       148 7.12868E+07 1.56706E+07 1.21609E+07 7.28643E+07 5.37660E+05-1.82976E+08
 -1       149 6.79856E+07 1.15394E+07 1.41632E+07 2.23684E+08 9.88843E+05-5.85226E+07
 -1       150-2.37968E+07-2.05421E+07 2.74132E+07-1.43291E+08 2.68777E+06 1.26611E+08
 -1       151-1.73368E+08 2.76006E+06 2.42843E+07-1.05241E+08-1.81896E+07 2.49912E+08
 -1       152 6.97970E+07 7.70296E+07-7.20318E+07-3.46060E+07-5.35001E+06 3.15483E+07
 -1       153 4.64990E+08 5.76577E+07-1.92766E+07-1.74337E+07 3.03955E+07-1.22337E+07
 -1       154 6.17459E+07 8.50566E+06 2.44516E+07-2.22872E+08 1.86865E+07 1.00550E+08
 -1       155-9.84692E+07-1.91362E+07 1.49140E+06-1.16960E+08-1.54894E+07 1.91876E+08
 -1       156-8.20177E+07 3.24316E+07 2.47061E+07-1.77347E+08-3.94565E+06 2.26318E+08
 -1       157-2.79880E+08 3.83680E+07 4.24454E+07-1.09564E+08-3.16115E+07 8.66154E+07
 -1       158 8.20899E+08 3.57271E+07 2.30532E+07-2.07940E+07 6.29228E+07 1.51693E+07
 -1       159-2.22767E+08 2.94044E+07 5.84907E+07-1.05747E+08-1.73480E+07 1.64645E+08
 -1       160-2.09145E+08 5.90871E+07 3.31105E+07-1.99909E+08-2.02538E+07 8.72536E+07
 -1       161 4.27276E+07 1.83117E+07 1.83114E+07 5.78604E+08-5.02046E+00-4.94733E+08
 -1       162 2.98326E+08 1.27852E+08 1.27852E+08 5.46017E+08 3.07178E+01-4.77085E+08
 -1       163-3.80728E+07-4.13452E+07 3.32238E+07 1.09505E+08 2.37286E+06-9.57268E+07
 -1       164-2.51871E+08-4.81736E+07-1.01463E+07 8.50904E+07-1.47078E+07-2.40660E+07
 -1       165-8.45570E+07-3.62386E+07-3.62382E+07 5.72087E+08-4.29673E+00-4.77923E+08
 -1       166 1.52635E+08 6.54153E+07 6.54157E+07 5.62647E+08 1.07982E+01-4.85824E+08
 -1       167 1.62718E+08 6.97381E+07 6.97383E+07 5.49649E+08-1.53064E+01-4.71903E+08
 -1       168 5.02530E+08 2.15367E+08 2.15367E+08 5.38846E+08 5.90468E+01-4.47586E+08
 -1       169-4.47783E+08-5.09286E+07-4.45883E+07 8.97499E+07-2.79078E+07-7.23001E+07
 -1       170 4.10427E+08 1.75901E+08 1.75901E+08 5.42468E+08-3.88741E+01-4.62306E+08
 -1       171 3.90259E+08 1.67258E+08 1.67258E+08 5.52255E+08-3.75907E+01-4.53993E+08
 -3
    1PSTEP                        35           1           1          
    1PGM                1.000000E+00                                  
    1PGK                1.256155E+07                                  
    1PHID                         -1                                  
    1PSUBC                         0                                  
    1PMODE                        18                                  
  100CL  118 5.64081E+02         171                     2   18MODAL      1
 -4  DISP        4    1
 -5  D1          1    2    1    0
 -5  D2          1    2    2    0
 -5  D3          1    2    3    0
 -5  ALL         1    2    0    0    1ALL
 -1         1-7.75813E-04-4.41338E-03-5.33101E-03
 -1         2-5.01879E-03-4.51976E-03-5.75600E-03
 -1         3-1.34007E-16-4.66405E-03-5.53087E-03
 -1         4 4.23222E-03-4.85389E-03-5.35977E-03
 -1         5 2.97783E-04 1.63620E-03 1.84612E-03
 -1         6 1.98924E-03 1.49436E-03 1.48100E-03
 -1         7-5.26922E-17 1.38087E-03 1.63751E-03
 -1         8-1.67748E-03 1.24889E-03 1.77209E-03
 -1         9-3.16012E-03-4.38467E-03-5.66867E-03
 -1        10-2.28953E-03-4.65763E-03-5.55521E-03
 -1        11 1.93071E-03-4.68457E-03-5.52326E-03
 -1        12 2.02335E-03-4.74794E-03-5.25076E-03
 -1        13-2.86922E-04 2.85477E-03 3.17881E-03
 -1        14-1.83667E-03 2.41432E-03 2.36141E-03
 -1        15-1.01210E-16 2.17310E-03 2.57698E-03
 -1        16 1.54882E-03 1.99132E-03 2.86303E-03
 -1        17 1.42499E-03 1.57160E-03 1.66206E-03
 -1        18 7.66658E-04 1.42798E-03 1.56717E-03
 -1        19-6.46503E-04 1.32156E-03 1.69338E-03
 -1        20-1.00509E-03 1.44311E-03 1.81674E-03
 -1        21 5.01879E-03-4.51976E-03-5.75600E-03
 -1        22 9.12452E-03-4.98194E-03-5.81046E-03
 -1        23-1.98924E-03 1.49436E-03 1.48100E-03
 -1        24-3.50230E-03 1.08640E-03 1.38249E-03
 -1        25 2.28953E-03-4.65763E-03-5.55521E-03
 -1        26 6.90530E-03-4.68355E-03-5.85725E-03
 -1        27 6.46457E-03-4.97158E-03-5.50280E-03
 -1        28 1.83667E-03 2.41432E-03 2.36141E-03
 -1        29 3.37456E-03 1.64907E-03 2.16207E-03
 -1        30-7.66658E-04 1.42798E-03 1.56717E-03
 -1        31-2.57260E-03 1.29756E-03 1.41955E-03
 -1        32-2.36599E-03 1.15553E-03 1.58565E-03
 -1        33-3.34674E-04-7.83864E-04-8.96070E-04
 -1        34-2.23104E-03-7.20526E-04-7.65951E-04
 -1        35 1.64799E-17-6.84523E-04-8.11743E-04
 -1        36 1.88138E-03-6.45908E-04-8.54437E-04
 -1        37 7.54847E-05-3.25258E-03-3.71656E-03
 -1        38 5.10810E-04-2.95315E-03-3.16715E-03
 -1        39-7.37257E-18-2.79924E-03-3.31949E-03
 -1        40-4.30754E-04-2.67078E-03-3.50200E-03
 -1        41-1.51455E-03-7.58187E-04-8.23335E-04
 -1        42-9.29098E-04-6.96355E-04-7.96613E-04
 -1        43 7.83485E-04-6.71764E-04-8.25774E-04
 -1        44 1.03248E-03-7.08366E-04-8.82444E-04
 -1        45 2.23104E-03-7.20526E-04-7.65951E-04
 -1        46 3.93618E-03-5.88423E-04-7.31259E-04
 -1        47-5.10810E-04-2.95315E-03-3.16715E-03
 -1        48-8.87793E-04-2.43222E-03-3.02477E-03
 -1        49 9.29098E-04-6.96355E-04-7.96613E-04
 -1        50 2.94313E-03-6.60964E-04-7.41205E-04
 -1        51 2.72657E-03-6.10972E-04-8.00459E-04
 -1        52 3.26605E-04-2.04102E-04-2.33512E-04
 -1        53 2.19096E-03-1.89157E-04-1.99468E-04
 -1        54 7.74120E-17-1.77787E-04-2.10829E-04
 -1        55-1.84758E-03-1.68206E-04-2.24312E-04
 -1        56-2.05503E-05 3.22135E-03 3.67445E-03
 -1        57-1.36442E-04 2.91673E-03 3.10616E-03
 -1        58 3.02492E-17 2.75650E-03 3.26880E-03
 -1        59 1.15058E-04 2.61935E-03 3.45880E-03
 -1        60 1.46864E-03-1.96668E-04-2.20189E-04
 -1        61 9.27048E-04-1.82562E-04-2.05512E-04
 -1        62-7.81757E-04-1.73303E-04-2.16491E-04
 -1        63-9.95119E-04-1.90137E-04-2.28980E-04
 -1        64-2.19096E-03-1.89157E-04-1.99468E-04
 -1        65-3.84128E-03-1.54342E-04-1.91550E-04
 -1        66 1.36442E-04 2.91673E-03 3.10616E-03
 -1        67 2.41697E-04 2.37131E-03 2.95763E-03
 -1        68-9.27048E-04-1.82562E-04-2.05512E-04
 -1        69-2.88931E-03-1.71920E-04-1.94169E-04
 -1        70-2.67983E-03-1.59281E-04-2.08111E-04
 -1        71-3.56354E-04 1.33707E-03 1.51993E-03
 -1        72-2.34369E-03 1.24513E-03 1.27858E-03
 -1        73 1.52222E-16 1.18282E-03 1.40265E-03
 -1        74 1.97638E-03 1.07820E-03 1.47654E-03
 -1        75-5.73764E-05-3.18462E-03-3.62615E-03
 -1        76-3.91555E-04-2.88942E-03-3.04258E-03
 -1        77 1.24033E-16-2.72320E-03-3.22932E-03
 -1        78 3.30189E-04-2.56574E-03-3.42643E-03
 -1        79-1.48291E-03 1.28864E-03 1.40769E-03
 -1        80-1.07109E-03 1.21482E-03 1.33928E-03
 -1        81 9.03227E-04 1.12938E-03 1.44060E-03
 -1        82 9.57573E-04 1.21608E-03 1.49556E-03
 -1        83 2.34369E-03 1.24513E-03 1.27858E-03
 -1        84 4.19117E-03 9.53883E-04 1.19680E-03
 -1        85 3.91555E-04-2.88942E-03-3.04258E-03
 -1        86 6.74818E-04-2.30694E-03-2.88603E-03
 -1        87 1.07109E-03 1.21482E-03 1.33928E-03
 -1        88 3.19303E-03 1.09851E-03 1.23833E-03
 -1        89 2.98553E-03 1.01524E-03 1.33523E-03
 -1        90 0.00000E+00 0.00000E+00 0.00000E+00
 -1        91 0.00000E+00 0.00000E+00 0.00000E+00
 -1        92 0.00000E+00 0.00000E+00 0.00000E+00
 -1        93 0.00000E+00 0.00000E+00 0.00000E+00
 -1        94-9.73944E-06 3.55005E-03 4.14093E-03
 -1        95-3.19028E-05 3.41235E-03 3.86878E-03
 -1        96 9.66024E-17 3.32886E-03 3.94753E-03
 -1        97 2.69029E-05 3.26245E-03 4.04655E-03
 -1        98 0.00000E+00 0.00000E+00 0.00000E+00
 -1        99 0.00000E+00 0.00000E+00 0.00000E+00
 -1       100 0.00000E+00 0.00000E+00 0.00000E+00
 -1       101 0.00000E+00 0.00000E+00 0.00000E+00
 -1       102 0.00000E+00 0.00000E+00 0.00000E+00
 -1       103 0.00000E+00 0.00000E+00 0.00000E+00
 -1       104 3.19028E-05 3.41235E-03 3.86878E-03
 -1       105 1.14548E-04 3.14780E-03 3.80172E-03
 -1       106 0.00000E+00 0.00000E+00 0.00000E+00
 -1       107 0.00000E+00 0.00000E+00 0.00000E+00
 -1       108 0.00000E+00 0.00000E+00 0.00000E+00
 -1       109-9.12452E-03-4.98194E-03-5.81046E-03
 -1       110-4.23222E-03-4.85389E-03-5.35977E-03
 -1       111 3.50230E-03 1.08640E-03 1.38249E-03
 -1       112 1.67748E-03 1.24889E-03 1.77209E-03
 -1       113-6.90530E-03-4.68355E-03-5.85725E-03
 -1       114-6.46457E-03-4.97158E-03-5.50280E-03
 -1       115-1.93071E-03-4.68457E-03-5.52326E-03
 -1       116-3.37456E-03 1.64907E-03 2.16207E-03
 -1       117-1.54882E-03 1.99132E-03 2.86303E-03
 -1       118 2.57260E-03 1.29756E-03 1.41955E-03
 -1       119 2.36599E-03 1.15553E-03 1.58565E-03
 -1       120 6.46503E-04 1.32156E-03 1.69338E-03
 -1       121 7.75813E-04-4.41338E-03-5.33101E-03
 -1       122-2.97783E-04 1.63620E-03 1.84612E-03
 -1       123-2.02335E-03-4.74794E-03-5.25076E-03
 -1       124 3.16012E-03-4.38467E-03-5.66867E-03
 -1       125 2.86922E-04 2.85477E-03 3.17881E-03
 -1       126 1.00509E-03 1.44311E-03 1.81674E-03
 -1       127-1.42499E-03 1.57160E-03 1.66206E-03
 -1       128-3.93618E-03-5.88423E-04-7.31259E-04
 -1       129-1.88138E-03-6.45908E-04-8.54437E-04
 -1       130 8.87793E-04-2.43222E-03-3.02477E-03
 -1       131 4.30754E-04-2.67078E-03-3.50200E-03
 -1       132-2.94313E-03-6.60964E-04-7.41205E-04
 -1       133-2.72657E-03-6.10972E-04-8.00459E-04
 -1       134-7.83485E-04-6.71764E-04-8.25774E-04
 -1       135 3.34674E-04-7.83864E-04-8.96070E-04
 -1       136-7.54847E-05-3.25258E-03-3.71656E-03
 -1       137-1.03248E-03-7.08366E-04-8.82444E-04
 -1       138 1.51455E-03-7.58187E-04-8.23335E-04
 -1       139 3.84128E-03-1.54342E-04-1.91550E-04
 -1       140 1.84758E-03-1.68206E-04-2.24312E-04
 -1       141-2.41697E-04 2.37131E-03 2.95763E-03
 -1       142-1.15058E-04 2.61935E-03 3.45880E-03
 -1       143 2.88931E-03-1.71920E-04-1.94169E-04
 -1       144 2.67983E-03-1.59281E-04-2.08111E-04
 -1       145 7.81757E-04-1.73303E-04-2.16491E-04
 -1       146-3.26605E-04-2.04102E-04-2.33512E-04
 -1       147 2.05503E-05 3.22135E-03 3.67445E-03
 -1       148 9.95119E-04-1.90137E-04-2.28980E-04
 -1       149-1.46864E-03-1.96668E-04-2.20189E-04
 -1       150-4.19117E-03 9.53883E-04 1.19680E-03
 -1       151-1.97638E-03 1.07820E-03 1.47654E-03
 -1       152-6.74818E-04-2.30694E-03-2.88603E-03
 -1       153-3.30189E-04-2.56574E-03-3.42643E-03
 -1       154-3.19303E-03 1.09851E-03 1.23833E-03
 -1       155-2.98553E-03 1.01524E-03 1.33523E-03
 -1       156-9.03227E-04 1.12938E-03 1.44060E-03
 -1       157 3.56354E-04 1.33707E-03 1.51993E-03
 -1       158 5.73764E-05-3.18462E-03-3.62615E-03
 -1       159-9.57573E-04 1.21608E-03 1.49556E-03
 -1       160 1.48291E-03 1.28864E-03 1.40769E-03
 -1       161 0.00000E+00 0.00000E+00 0.00000E+00
 -1       162 0.00000E+00 0.00000E+00 0.00000E+00
 -1       163-1.14548E-04 3.14780E-03 3.80172E-03
 -1       164-2.69029E-05 3.26245E-03 4.04655E-03
 -1       165 0.00000E+00 0.00000E+00 0.00000E+00
 -1       166 0.00000E+00 0.00000E+00 0.00000E+00
 -1       167 0.00000E+00 0.00000E+00 0.00000E+00
 -1       168 0.00000E+00 0.00000E+00 0.00000E+00
 -1       169 9.73944E-06 3.55005E-03 4.14093E-03
 -1       170 0.00000E+00 0.00000E+00 0.00000E+00
 -1       171 0.00000E+00 0.00000E+00 0.00000E+00
 -3
    1PSTEP                        36           1           1          
    1PGM                1.000000E+00                                  
    1PGK                1.256155E+07                                  
    1PHID                         -1                                  
    1PSUBC                         0                                  
    1PMODE                        18                                  
  100CL  118 5.64081E+02         171                     2   18MODAL      1
 -4  STRESS      6    1
 -5  SXX         1    4    1    1
 -5  SYY         1    4    2    2
 -5  SZZ         1    4    3    3
 -5  SXY         1    4    1    2
 -5  SYZ         1    4    2    3
 -5  SZX         1    4    3    1
 -1         1-8.90705E+07-8.93035E+07 8.63846E+07-7.09988E+07 4.29402E+06-8.10648E+07
 -1         2-5.64315E+08-2.78371E+07 5.35590E+07-3.25318E+08-4.14951E+07-6.30653E+07
 -1         3-1.12518E-05-3.58643E-05 1.10641E-05-2.82357E+08 6.85221E-06-3.34833E+08
 -1         4 4.75873E+08-4.51650E+07 2.34743E+07-5.31814E+07 4.92071E+07-3.85779E+08
 -1         5-5.10104E+07 2.36515E+07-2.56057E+07 1.06149E+08-2.14250E+06 1.17817E+08
 -1         6-3.37908E+08 7.50104E+04-2.60757E+07 3.79337E+08 1.55648E+07 7.49144E+07
 -1         7 2.16994E-05 7.51447E-05 3.54210E-05 3.19243E+08-5.59987E-06 3.78575E+08
 -1         8 2.84950E+08 2.19890E+07-6.32544E+04 6.31734E+07-1.84576E+07 4.49837E+08
 -1         9-3.75171E+08-4.66263E+07 7.79052E+07-2.04814E+08-3.61495E+07-6.49120E+07
 -1        10-2.43636E+08-1.91530E+07 1.12160E+07-2.99738E+08-1.06776E+07-1.95862E+08
 -1        11 2.05452E+08-9.45818E+06 1.61512E+07-1.65165E+08 1.26620E+07-3.55445E+08
 -1        12 2.47869E+08-7.46708E+07 4.04540E+07-5.49271E+07 4.15601E+07-2.38141E+08
 -1        13-1.09276E+08 5.45450E+07-6.09227E+07 3.73113E+03-3.10794E+06 1.93240E+05
 -1        14-7.06995E+08 2.18213E+07-4.24053E+07 1.01161E+07 1.16913E+07 1.72599E+06
 -1        15-9.50927E-06-1.53156E-06-2.91620E-06 7.88508E+06 6.52368E-06 9.35054E+06
 -1        16 5.96192E+08 3.57593E+07-1.84014E+07 1.45549E+06-1.38641E+07 1.19962E+07
 -1        17-2.11088E+08-1.98854E+07-4.43221E+07 2.54238E+08 1.49154E+07 8.00820E+07
 -1        18-1.50840E+08 1.88204E+07 2.30017E+07 3.40883E+08 1.96092E+06 2.28593E+08
 -1        19 1.27200E+08-1.93968E+07-1.58708E+07 1.92767E+08-2.32536E+06 4.04236E+08
 -1        20 1.36264E+08 4.38662E+07 2.44270E+07 6.89109E+07-1.72149E+07 2.94054E+08
 -1        21 5.64315E+08 2.78371E+07-5.35590E+07-3.25318E+08 4.14951E+07-6.30653E+07
 -1        22 1.04758E+09 2.46337E+07 9.69585E+06-5.27295E+07 5.05030E+07-6.56588E+07
 -1        23 3.37908E+08-7.50104E+04 2.60757E+07 3.79337E+08-1.55648E+07 7.49144E+07
 -1        24 5.99946E+08 9.39760E+06 1.35857E+07 5.90935E+07-2.51985E+07 7.81362E+07
 -1        25 2.43636E+08 1.91530E+07-1.12160E+07-2.99738E+08 1.06776E+07-1.95862E+08
 -1        26 7.75098E+08 3.99990E+07-2.55068E+07-1.77150E+08 2.85138E+07-6.38120E+07
 -1        27 7.22124E+08-1.25340E+07 3.25949E+07-5.36226E+07 3.51211E+07-2.14812E+08
 -1        28 7.06995E+08-2.18213E+07 4.24053E+07 1.01161E+07-1.16913E+07 1.72599E+06
 -1        29 1.28522E+09 3.25958E+07 4.24134E+07 1.10606E+06-3.65532E+07 1.12280E+06
 -1        30 1.50840E+08-1.88204E+07-2.30017E+07 3.40883E+08-1.96092E+06 2.28593E+08
 -1        31 4.54778E+08-2.48241E+07 6.42999E+06 2.10832E+08-1.21568E+07 7.20274E+07
 -1        32 4.25244E+08-1.06823E+06-2.85918E+07 5.93593E+07-1.48886E+07 2.57451E+08
 -1        33 2.16801E+07-6.31699E+06 9.75646E+06-9.90603E+07 4.94525E+05-1.08140E+08
 -1        34 1.47781E+08 1.06827E+07 1.67964E+07-3.21381E+08-3.25779E+06-5.69195E+07
 -1        35-1.16648E-05-1.91574E-05-1.71368E-05-2.64640E+08-7.16250E-06-3.13824E+08
 -1        36-1.24620E+08-1.41640E+07-9.00848E+06-4.79988E+07 3.86326E+06-3.81111E+08
 -1        37 6.56114E+07-7.53711E+07 8.32515E+07 1.07860E+07 5.26314E+06 1.03203E+07
 -1        38 4.38301E+08-1.26680E+07 6.68757E+07 3.53936E+07-2.89154E+07-4.94381E+06
 -1        39 1.26692E-05 4.54672E-05 1.88984E-05 2.39477E+07-8.41543E-06 2.83984E+07
 -1        40-3.69608E+08-5.63946E+07 1.06826E+07-4.16900E+06 3.42894E+07 4.19716E+07
 -1        41 9.05556E+07 6.70177E+06 1.62357E+07-2.16774E+08-2.81827E+06-7.10268E+07
 -1        42 6.82216E+07 2.01282E+06 2.75357E+06-2.87296E+08-7.25349E+05-1.85211E+08
 -1        43-5.75296E+07-2.32202E+06-1.69736E+06-1.56183E+08 8.60156E+05-3.40690E+08
 -1        44-5.81040E+07-1.36658E+07-4.87743E+06-6.22557E+07 3.40661E+06-2.50105E+08
 -1        45-1.47781E+08-1.06827E+07-1.67964E+07-3.21381E+08 3.25779E+06-5.69195E+07
 -1        46-2.54985E+08-1.95429E+07-2.09096E+07-4.45843E+07 5.81623E+06-6.22015E+07
 -1        47-4.38301E+08 1.26680E+07-6.68757E+07 3.53936E+07 2.89154E+07-4.94381E+06
 -1        48-7.71672E+08-3.95981E+07-5.30850E+07-3.63576E+06 6.19011E+07-1.84120E+06
 -1        49-6.82216E+07-2.01282E+06-2.75357E+06-2.87296E+08 7.25349E+05-1.85211E+08
 -1        50-1.97155E+08-1.12205E+07-1.63837E+07-1.76163E+08 3.19514E+06-5.72455E+07
 -1        51-1.84516E+08-1.38413E+07-1.02360E+07-4.59132E+07 3.72441E+06-2.15860E+08
 -1        52 7.10197E+06-2.28130E+06 5.01714E+06 1.17590E+08 1.10588E+05 1.29169E+08
 -1        53 5.24645E+07 9.97507E+06 1.36056E+07 3.17658E+08-2.46885E+06 7.15790E+07
 -1        54-2.74406E-05-4.59027E-05-4.61400E-06 2.60590E+08 8.83301E-06 3.09021E+08
 -1        55-4.42420E+07-1.14733E+07-8.41173E+06 6.03608E+07 2.92769E+06 3.76696E+08
 -1        56-6.90519E+07 7.92604E+07-8.90017E+07 2.24838E+06-5.63029E+06 2.91586E+06
 -1        57-4.63276E+08 7.85811E+06-7.80739E+07-8.88926E+06 3.19346E+07 4.73962E+06
 -1        58-1.75117E-05-3.47681E-05-3.36207E-06-6.45770E+06-1.56253E-06-7.65787E+06
 -1        59 3.90669E+08 6.58378E+07-6.62655E+06 3.99680E+06-3.78697E+07-1.05413E+07
 -1        60 2.53341E+07 4.66195E+06 1.01327E+07 2.22100E+08-2.58834E+06 8.99236E+07
 -1        61 3.01665E+07 4.70713E+06 5.91742E+06 2.83838E+08-6.31290E+05 1.90175E+08
 -1        62-2.54387E+07-4.99002E+06-3.96940E+06 1.60370E+08 7.48617E+05 3.36590E+08
 -1        63-1.34924E+07-7.59605E+06-2.64684E+06 7.87525E+07 2.71813E+06 2.56677E+08
 -1        64-5.24645E+07-9.97507E+06-1.36056E+07 3.17658E+08 2.46885E+06 7.15790E+07
 -1        65-8.35280E+07-1.57782E+07-1.63987E+07 5.75973E+07 1.30065E+06 7.85779E+07
 -1        66 4.63276E+08-7.85811E+06 7.80739E+07-8.88926E+06-3.19346E+07 4.73962E+06
 -1        67 8.12136E+08 5.01314E+07 6.44379E+07 3.70567E+06-6.62192E+07 4.14476E+06
 -1        68-3.01665E+07-4.70713E+06-5.91742E+06 2.83838E+08 6.31290E+05 1.90175E+08
 -1        69-7.12868E+07-1.21609E+07-1.56706E+07 1.82976E+08 5.37660E+05 7.28643E+07
 -1        70-6.79856E+07-1.41632E+07-1.15394E+07 5.85226E+07 9.88843E+05 2.23684E+08
 -1        71-2.37968E+07 2.74132E+07-2.05421E+07-1.26611E+08-2.68777E+06-1.43291E+08
 -1        72-1.73368E+08 2.42843E+07 2.76006E+06-2.49912E+08 1.81896E+07-1.05241E+08
 -1        73 6.95931E-06 1.28122E-05 4.50946E-06-2.10354E+08-6.87432E-08-2.49448E+08
 -1        74 1.46197E+08-2.32749E+06-2.04784E+07-8.87471E+07-2.15702E+07-2.96359E+08
 -1        75 6.97970E+07-7.20318E+07 7.70296E+07-3.15483E+07 5.35001E+06-3.46060E+07
 -1        76 4.64990E+08-1.92766E+07 5.76577E+07 1.22337E+07-3.03955E+07-1.74337E+07
 -1        77-8.31531E-06-1.14385E-05 8.48621E-06 1.60273E+07 1.89408E-06 1.90060E+07
 -1        78-3.92115E+08-4.86213E+07 1.62555E+07-1.47014E+07 3.60446E+07 1.45073E+07
 -1        79-9.84692E+07 1.49140E+06-1.91362E+07-1.91876E+08 1.54894E+07-1.16960E+08
 -1        80-8.20177E+07 2.47061E+07 3.24316E+07-2.26318E+08 3.94565E+06-1.77347E+08
 -1        81 6.91635E+07-2.73488E+07-2.08341E+07-1.49552E+08-4.67896E+06-2.68380E+08
 -1        82 6.17459E+07 2.44516E+07 8.50566E+06-1.00550E+08-1.86865E+07-2.22872E+08
 -1        83 1.73368E+08-2.42843E+07-2.76006E+06-2.49912E+08-1.81896E+07-1.05241E+08
 -1        84 2.79880E+08-4.24454E+07-3.83680E+07-8.66154E+07-3.16115E+07-1.09564E+08
 -1        85-4.64990E+08 1.92766E+07-5.76577E+07 1.22337E+07 3.03955E+07-1.74337E+07
 -1        86-8.20899E+08-2.30532E+07-3.57271E+07-1.51693E+07 6.29228E+07-2.07940E+07
 -1        87 8.20177E+07-2.47061E+07-3.24316E+07-2.26318E+08-3.94565E+06-1.77347E+08
 -1        88 2.22767E+08-5.84907E+07-2.94044E+07-1.64645E+08-1.73480E+07-1.05747E+08
 -1        89 2.09145E+08-3.31105E+07-5.90871E+07-8.72536E+07-2.02538E+07-1.99909E+08
 -1        90 4.27276E+07 1.83114E+07 1.83117E+07 4.94733E+08 5.02046E+00 5.78604E+08
 -1        91 2.98326E+08 1.27852E+08 1.27852E+08 4.77085E+08-3.07178E+01 5.46017E+08
 -1        92 3.16801E-05 1.37503E-05 1.38482E-05 4.66636E+08 7.32771E-08 5.53361E+08
 -1        93-2.51571E+08-1.07815E+08-1.07814E+08 4.60443E+08 3.64267E+01 5.65752E+08
 -1        94-3.80728E+07 3.32238E+07-4.13452E+07 9.57268E+07-2.37286E+06 1.09505E+08
 -1        95-2.51871E+08-1.01463E+07-4.81736E+07 2.40660E+07 1.47078E+07 8.50904E+07
 -1        96 1.81665E-05 7.51205E-06 2.33389E-06 2.34939E+07 6.05360E-07 2.78603E+07
 -1        97 2.12397E+08 4.06236E+07 8.55608E+06 7.17546E+07-1.74412E+07 2.85387E+07
 -1        98 1.52635E+08 6.54157E+07 6.54153E+07 4.85824E+08-1.07982E+01 5.62647E+08
 -1        99 1.62718E+08 6.97383E+07 6.97381E+07 4.71903E+08 1.53064E+01 5.49649E+08
 -1       100-1.37216E+08-5.88084E+07-5.88086E+07 4.63506E+08-1.81512E+01 5.59607E+08
 -1       101-8.45570E+07-3.62382E+07-3.62386E+07 4.77923E+08 4.29673E+00 5.72087E+08
 -1       102-2.98326E+08-1.27852E+08-1.27852E+08 4.77085E+08 3.07178E+01 5.46017E+08
 -1       103-5.02530E+08-2.15367E+08-2.15367E+08 4.47586E+08 5.90468E+01 5.38846E+08
 -1       104 2.51871E+08 1.01463E+07 4.81736E+07 2.40660E+07-1.47078E+07 8.50904E+07
 -1       105 4.47783E+08 4.45883E+07 5.09286E+07 7.23001E+07-2.79078E+07 8.97499E+07
 -1       106-1.62718E+08-6.97383E+07-6.97381E+07 4.71903E+08-1.53064E+01 5.49649E+08
 -1       107-4.10427E+08-1.75901E+08-1.75901E+08 4.62306E+08-3.88741E+01 5.42468E+08
 -1       108-3.90259E+08-1.67258E+08-1.67258E+08 4.53993E+08-3.75907E+01 5.52255E+08
 -1       109-1.04758E+09-2.46337E+07-9.69585E+06-5.27295E+07-5.05030E+07-6.56588E+07
 -1       110-4.75873E+08 4.51650E+07-2.34743E+07-5.31814E+07-4.92071E+07-3.85779E+08
 -1       111-5.99946E+08-9.39760E+06-1.35857E+07 5.90935E+07 2.51985E+07 7.81362E+07
 -1       112-2.84950E+08-2.19890E+07 6.32544E+04 6.31734E+07 1.84576E+07 4.49837E+08
 -1       113-7.75098E+08-3.99990E+07 2.55068E+07-1.77150E+08-2.85138E+07-6.38120E+07
 -1       114-7.22124E+08 1.25340E+07-3.25949E+07-5.36226E+07-3.51211E+07-2.14812E+08
 -1       115-2.05452E+08 9.45818E+06-1.61512E+07-1.65165E+08-1.26620E+07-3.55445E+08
 -1       116-1.28522E+09-3.25958E+07-4.24134E+07 1.10606E+06 3.65532E+07 1.12280E+06
 -1       117-5.96192E+08-3.57593E+07 1.84014E+07 1.45549E+06 1.38641E+07 1.19962E+07
 -1       118-4.54778E+08 2.48241E+07-6.42999E+06 2.10832E+08 1.21568E+07 7.20274E+07
 -1       119-4.25244E+08 1.06823E+06 2.85918E+07 5.93593E+07 1.48886E+07 2.57451E+08
 -1       120-1.27200E+08 1.93968E+07 1.58708E+07 1.92767E+08 2.32536E+06 4.04236E+08
 -1       121 8.90705E+07 8.93035E+07-8.63846E+07-7.09988E+07-4.29402E+06-8.10648E+07
 -1       122 5.10104E+07-2.36515E+07 2.56057E+07 1.06149E+08 2.14250E+06 1.17817E+08
 -1       123-2.47869E+08 7.46708E+07-4.04540E+07-5.49271E+07-4.15601E+07-2.38141E+08
 -1       124 3.75171E+08 4.66263E+07-7.79052E+07-2.04814E+08 3.61495E+07-6.49120E+07
 -1       125 1.09276E+08-5.45450E+07 6.09227E+07 3.73113E+03 3.10794E+06 1.93240E+05
 -1       126-1.36264E+08-4.38662E+07-2.44270E+07 6.89109E+07 1.72149E+07 2.94054E+08
 -1       127 2.11088E+08 1.98854E+07 4.43221E+07 2.54238E+08-1.49154E+07 8.00820E+07
 -1       128 2.54985E+08 1.95429E+07 2.09096E+07-4.45843E+07-5.81623E+06-6.22015E+07
 -1       129 1.24620E+08 1.41640E+07 9.00848E+06-4.79988E+07-3.86326E+06-3.81111E+08
 -1       130 7.71672E+08 3.95981E+07 5.30850E+07-3.63576E+06-6.19011E+07-1.84120E+06
 -1       131 3.69608E+08 5.63946E+07-1.06826E+07-4.16900E+06-3.42894E+07 4.19716E+07
 -1       132 1.97155E+08 1.12205E+07 1.63837E+07-1.76163E+08-3.19514E+06-5.72455E+07
 -1       133 1.84516E+08 1.38413E+07 1.02360E+07-4.59132E+07-3.72441E+06-2.15860E+08
 -1       134 5.75296E+07 2.32202E+06 1.69736E+06-1.56183E+08-8.60156E+05-3.40690E+08
 -1       135-2.16801E+07 6.31699E+06-9.75646E+06-9.90603E+07-4.94525E+05-1.08140E+08
 -1       136-6.56114E+07 7.53711E+07-8.32515E+07 1.07860E+07-5.26314E+06 1.03203E+07
 -1       137 5.81040E+07 1.36658E+07 4.87743E+06-6.22557E+07-3.40661E+06-2.50105E+08
 -1       138-9.05556E+07-6.70177E+06-1.62357E+07-2.16774E+08 2.81827E+06-7.10268E+07
 -1       139 8.35280E+07 1.57782E+07 1.63987E+07 5.75973E+07-1.30065E+06 7.85779E+07
 -1       140 4.42420E+07 1.14733E+07 8.41173E+06 6.03608E+07-2.92769E+06 3.76696E+08
 -1       141-8.12136E+08-5.01314E+07-6.44379E+07 3.70567E+06 6.62192E+07 4.14476E+06
 -1       142-3.90669E+08-6.58378E+07 6.62655E+06 3.99680E+06 3.78697E+07-1.05413E+07
 -1       143 7.12868E+07 1.21609E+07 1.56706E+07 1.82976E+08-5.37660E+05 7.28643E+07
 -1       144 6.79856E+07 1.41632E+07 1.15394E+07 5.85226E+07-9.88843E+05 2.23684E+08
 -1       145 2.54387E+07 4.99002E+06 3.96940E+06 1.60370E+08-7.48617E+05 3.36590E+08
 -1       146-7.10197E+06 2.28130E+06-5.01714E+06 1.17590E+08-1.10588E+05 1.29169E+08
 -1       147 6.90519E+07-7.92604E+07 8.90017E+07 2.24838E+06 5.63029E+06 2.91586E+06
 -1       148 1.34924E+07 7.59605E+06 2.64684E+06 7.87525E+07-2.71813E+06 2.56677E+08
 -1       149-2.53341E+07-4.66195E+06-1.01327E+07 2.22100E+08 2.58834E+06 8.99236E+07
 -1       150-2.79880E+08 4.24454E+07 3.83680E+07-8.66154E+07 3.16115E+07-1.09564E+08
 -1       151-1.46197E+08 2.32749E+06 2.04784E+07-8.87471E+07 2.15702E+07-2.96359E+08
 -1       152 8.20899E+08 2.30532E+07 3.57271E+07-1.51693E+07-6.29228E+07-2.07940E+07
 -1       153 3.92115E+08 4.86213E+07-1.62555E+07-1.47014E+07-3.60446E+07 1.45073E+07
 -1       154-2.22767E+08 5.84907E+07 2.94044E+07-1.64645E+08 1.73480E+07-1.05747E+08
 -1       155-2.09145E+08 3.31105E+07 5.90871E+07-8.72536E+07 2.02538E+07-1.99909E+08
 -1       156-6.91635E+07 2.73488E+07 2.08341E+07-1.49552E+08 4.67896E+06-2.68380E+08
 -1       157 2.37968E+07-2.74132E+07 2.05421E+07-1.26611E+08 2.68777E+06-1.43291E+08
 -1       158-6.97970E+07 7.20318E+07-7.70296E+07-3.15483E+07-5.35001E+06-3.46060E+07
 -1       159-6.17459E+07-2.44516E+07-8.50566E+06-1.00550E+08 1.86865E+07-2.22872E+08
 -1       160 9.84692E+07-1.49140E+06 1.91362E+07-1.91876E+08-1.54894E+07-1.16960E+08
 -1       161 5.02530E+08 2.15367E+08 2.15367E+08 4.47586E+08-5.90468E+01 5.38846E+08
 -1       162 2.51571E+08 1.07815E+08 1.07814E+08 4.60443E+08-3.64267E+01 5.65752E+08
 -1       163-4.47783E+08-4.45883E+07-5.09286E+07 7.23001E+07 2.79078E+07 8.97499E+07
 -1       164-2.12397E+08-4.06236E+07-8.55608E+06 7.17546E+07 1.74412E+07 2.85387E+07
 -1       165 4.10427E+08 1.75901E+08 1.75901E+08 4.62306E+08 3.88741E+01 5.42468E+08
 -1       166 3.90259E+08 1.67258E+08 1.67258E+08 4.53993E+08 3.75907E+01 5.52255E+08
 -1       167 1.37216E+08 5.88084E+07 5.88086E+07 4.63506E+08 1.81512E+01 5.59607E+08
 -1       168-4.27276E+07-1.83114E+07-1.83117E+07 4.94733E+08-5.02046E+00 5.78604E+08
 -1       169 3.80728E+07-3.32238E+07 4.13452E+07 9.57268E+07 2.37286E+06 1.09505E+08
 -1       170 8.45570E+07 3.62382E+07 3.62386E+07 4.77923E+08-4.29673E+00 5.72087E+08
 -1       171-1.52635E+08-6.54157E+07-6.54153E+07 4.85824E+08 1.07982E+01 5.62647E+08
 -3
    1PSTEP                        37           1           1          
    1PGM                1.000000E+00                                  
    1PGK                1.611259E+07                                  
    1PHID                         -1                                  
    1PSUBC                         0                                  
    1PMODE                        19                                  
  100CL  119 6.38856E+02         171                     2   19MODAL      1
 -4  DISP        4    1
 -5  D1          1    2    1    0
 -5  D2          1    2    2    0
 -5  D3          1    2    3    0
 -5  ALL         1    2    0    0    1ALL
 -1         1 4.98442E-03-6.15536E-05 6.15536E-05
 -1         2 5.06825E-03 1.05656E-16 5.72338E-05
 -1         3 5.15342E-03 4.72712E-17 1.95156E-18
 -1         4 5.06825E-03-5.72338E-05 6.27753E-17
 -1         5-7.99747E-05-7.07126E-04 7.07126E-04
 -1         6-7.82009E-05-7.67615E-17 7.07310E-04
 -1         7-7.65321E-05-6.46184E-17-1.64799E-17
 -1         8-7.82009E-05-7.07310E-04-6.07153E-17
 -1         9 5.05770E-03-3.00577E-05 6.02885E-05
 -1        10 5.14235E-03 7.02563E-17 2.88284E-05
 -1        11 5.14235E-03-2.88284E-05 3.30682E-17
 -1        12 5.05770E-03-6.02885E-05 3.00577E-05
 -1        13 3.46866E-03-4.08015E-04 4.08015E-04
 -1        14 3.55867E-03 8.67362E-18 4.05218E-04
 -1        15 3.64890E-03-8.89046E-18-1.73472E-18
 -1        16 3.55867E-03-4.05218E-04 1.51788E-17
 -1        17-7.85234E-05-3.62221E-04 7.07962E-04
 -1        18-7.68269E-05-6.41848E-17 3.62534E-04
 -1        19-7.68269E-05-3.62534E-04-4.29344E-17
 -1        20-7.85234E-05-7.07962E-04 3.62221E-04
 -1        21 5.06825E-03 9.54098E-18-5.72338E-05
 -1        22 4.98442E-03-6.15536E-05-6.15536E-05
 -1        23-7.82009E-05 1.53957E-17-7.07310E-04
 -1        24-7.99747E-05-7.07126E-04-7.07126E-04
 -1        25 5.14235E-03 1.86483E-17-2.88284E-05
 -1        26 5.05770E-03-3.00577E-05-6.02885E-05
 -1        27 5.05770E-03-6.02885E-05-3.00577E-05
 -1        28 3.55867E-03-3.26345E-17-4.05218E-04
 -1        29 3.46866E-03-4.08015E-04-4.08015E-04
 -1        30-7.68269E-05-1.30104E-17-3.62534E-04
 -1        31-7.85234E-05-3.62221E-04-7.07962E-04
 -1        32-7.85234E-05-7.07962E-04-3.62221E-04
 -1        33-4.91859E-03 2.17623E-05-2.17623E-05
 -1        34-5.02675E-03 8.84709E-17-2.14080E-05
 -1        35-5.13466E-03 3.64292E-17 1.99493E-17
 -1        36-5.02675E-03 2.14080E-05 8.50015E-17
 -1        37-3.57589E-03-3.99544E-04 3.99544E-04
 -1        38-3.67633E-03-2.34188E-17 3.97810E-04
 -1        39-3.77687E-03 7.37257E-18 3.03577E-18
 -1        40-3.67633E-03-3.97810E-04-2.60209E-17
 -1        41-5.01016E-03 1.08333E-05-2.15773E-05
 -1        42-5.11805E-03 5.81132E-17-1.06659E-05
 -1        43-5.11805E-03 1.06659E-05 5.63785E-17
 -1        44-5.01016E-03 2.15773E-05-1.08333E-05
 -1        45-5.02675E-03-6.04443E-18 2.14080E-05
 -1        46-4.91859E-03 2.17623E-05 2.17623E-05
 -1        47-3.67633E-03 5.09575E-17-3.97810E-04
 -1        48-3.57589E-03-3.99544E-04-3.99544E-04
 -1        49-5.11805E-03 1.92988E-17 1.06659E-05
 -1        50-5.01016E-03 1.08333E-05 2.15773E-05
 -1        51-5.01016E-03 2.15773E-05 1.08333E-05
 -1        52 2.20676E-04 7.06362E-04-7.06362E-04
 -1        53 2.35327E-04-6.33174E-17-7.01454E-04
 -1        54 2.48664E-04-2.38524E-17-1.88651E-17
 -1        55 2.35327E-04 7.01454E-04-4.51028E-17
 -1        56-3.35484E-03 4.25121E-04-4.25121E-04
 -1        57-3.45010E-03 3.55618E-17-4.23607E-04
 -1        58-3.54473E-03-1.77267E-17-1.15196E-17
 -1        59-3.45010E-03 4.23607E-04 5.03070E-17
 -1        60 2.30820E-04 3.63185E-04-7.04804E-04
 -1        61 2.44638E-04-4.29344E-17-3.60973E-04
 -1        62 2.44638E-04 3.60973E-04-2.94903E-17
 -1        63 2.30820E-04 7.04804E-04-3.63185E-04
 -1        64 2.35327E-04-2.71051E-18 7.01454E-04
 -1        65 2.20676E-04 7.06362E-04 7.06362E-04
 -1        66-3.45010E-03-7.93636E-17 4.23607E-04
 -1        67-3.35484E-03 4.25121E-04 4.25121E-04
 -1        68 2.44638E-04-1.38778E-17 3.60973E-04
 -1        69 2.30820E-04 3.63185E-04 7.04804E-04
 -1        70 2.30820E-04 7.04804E-04 3.63185E-04
 -1        71 4.89323E-03 1.10425E-05-1.10425E-05
 -1        72 5.05845E-03 8.23994E-18-7.12998E-06
 -1        73 5.22604E-03 1.30104E-17 7.58942E-18
 -1        74 5.05845E-03 7.12998E-06 2.47198E-17
 -1        75 3.68335E-03 3.82771E-04-3.82771E-04
 -1        76 3.77978E-03-5.68122E-17-3.85542E-04
 -1        77 3.87586E-03 3.03577E-17 1.09504E-17
 -1        78 3.77978E-03 3.85542E-04-6.24500E-17
 -1        79 5.00743E-03 1.41248E-06-9.21137E-06
 -1        80 5.17405E-03 5.85469E-18 1.65931E-08
 -1        81 5.17405E-03-1.65931E-08 1.12757E-17
 -1        82 5.00743E-03 9.21137E-06-1.41248E-06
 -1        83 5.05845E-03 7.64363E-18 7.12998E-06
 -1        84 4.89323E-03 1.10425E-05 1.10425E-05
 -1        85 3.77978E-03 1.14492E-16 3.85542E-04
 -1        86 3.68335E-03 3.82771E-04 3.82771E-04
 -1        87 5.17405E-03 1.37152E-17-1.65931E-08
 -1        88 5.00743E-03 1.41248E-06 9.21137E-06
 -1        89 5.00743E-03 9.21137E-06 1.41248E-06
 -1        90 0.00000E+00 0.00000E+00 0.00000E+00
 -1        91 0.00000E+00 0.00000E+00 0.00000E+00
 -1        92 0.00000E+00 0.00000E+00 0.00000E+00
 -1        93 0.00000E+00 0.00000E+00 0.00000E+00
 -1        94 3.27124E-03-4.76626E-04 4.76626E-04
 -1        95 3.26649E-03 1.99493E-17 4.81155E-04
 -1        96 3.26125E-03-3.16587E-17-3.42608E-17
 -1        97 3.26649E-03-4.81155E-04 3.07913E-17
 -1        98 0.00000E+00 0.00000E+00 0.00000E+00
 -1        99 0.00000E+00 0.00000E+00 0.00000E+00
 -1       100 0.00000E+00 0.00000E+00 0.00000E+00
 -1       101 0.00000E+00 0.00000E+00 0.00000E+00
 -1       102 0.00000E+00 0.00000E+00 0.00000E+00
 -1       103 0.00000E+00 0.00000E+00 0.00000E+00
 -1       104 3.26649E-03-9.10730E-17-4.81155E-04
 -1       105 3.27124E-03-4.76626E-04-4.76626E-04
 -1       106 0.00000E+00 0.00000E+00 0.00000E+00
 -1       107 0.00000E+00 0.00000E+00 0.00000E+00
 -1       108 0.00000E+00 0.00000E+00 0.00000E+00
 -1       109 4.98442E-03 6.15536E-05 6.15536E-05
 -1       110 5.06825E-03 5.72338E-05-3.55618E-17
 -1       111-7.99747E-05 7.07126E-04 7.07126E-04
 -1       112-7.82009E-05 7.07310E-04 4.09828E-17
 -1       113 5.05770E-03 3.00577E-05 6.02885E-05
 -1       114 5.05770E-03 6.02885E-05 3.00577E-05
 -1       115 5.14235E-03 2.88284E-05-1.77809E-17
 -1       116 3.46866E-03 4.08015E-04 4.08015E-04
 -1       117 3.55867E-03 4.05218E-04-6.93889E-18
 -1       118-7.85234E-05 3.62221E-04 7.07962E-04
 -1       119-7.85234E-05 7.07962E-04 3.62221E-04
 -1       120-7.68269E-05 3.62534E-04 1.51788E-17
 -1       121 4.98442E-03 6.15536E-05-6.15536E-05
 -1       122-7.99747E-05 7.07126E-04-7.07126E-04
 -1       123 5.05770E-03 6.02885E-05-3.00577E-05
 -1       124 5.05770E-03 3.00577E-05-6.02885E-05
 -1       125 3.46866E-03 4.08015E-04-4.08015E-04
 -1       126-7.85234E-05 7.07962E-04-3.62221E-04
 -1       127-7.85234E-05 3.62221E-04-7.07962E-04
 -1       128-4.91859E-03-2.17623E-05-2.17623E-05
 -1       129-5.02675E-03-2.14080E-05-2.54788E-17
 -1       130-3.57589E-03 3.99544E-04 3.99544E-04
 -1       131-3.67633E-03 3.97810E-04 4.29344E-17
 -1       132-5.01016E-03-1.08333E-05-2.15773E-05
 -1       133-5.01016E-03-2.15773E-05-1.08333E-05
 -1       134-5.11805E-03-1.06659E-05-3.79471E-18
 -1       135-4.91859E-03-2.17623E-05 2.17623E-05
 -1       136-3.57589E-03 3.99544E-04-3.99544E-04
 -1       137-5.01016E-03-2.15773E-05 1.08333E-05
 -1       138-5.01016E-03-1.08333E-05 2.15773E-05
 -1       139 2.20676E-04-7.06362E-04-7.06362E-04
 -1       140 2.35327E-04-7.01454E-04 5.33970E-18
 -1       141-3.35484E-03-4.25121E-04-4.25121E-04
 -1       142-3.45010E-03-4.23607E-04-7.93636E-17
 -1       143 2.30820E-04-3.63185E-04-7.04804E-04
 -1       144 2.30820E-04-7.04804E-04-3.63185E-04
 -1       145 2.44638E-04-3.60973E-04-1.19262E-17
 -1       146 2.20676E-04-7.06362E-04 7.06362E-04
 -1       147-3.35484E-03-4.25121E-04 4.25121E-04
 -1       148 2.30820E-04-7.04804E-04 3.63185E-04
 -1       149 2.30820E-04-3.63185E-04 7.04804E-04
 -1       150 4.89323E-03-1.10425E-05-1.10425E-05
 -1       151 5.05845E-03-7.12998E-06 1.61817E-17
 -1       152 3.68335E-03-3.82771E-04-3.82771E-04
 -1       153 3.77978E-03-3.85542E-04 9.71445E-17
 -1       154 5.00743E-03-1.41248E-06-9.21137E-06
 -1       155 5.00743E-03-9.21137E-06-1.41248E-06
 -1       156 5.17405E-03 1.65931E-08 8.89046E-18
 -1       157 4.89323E-03-1.10425E-05 1.10425E-05
 -1       158 3.68335E-03-3.82771E-04 3.82771E-04
 -1       159 5.00743E-03-9.21137E-06 1.41248E-06
 -1       160 5.00743E-03-1.41248E-06 9.21137E-06
 -1       161 0.00000E+00 0.00000E+00 0.00000E+00
 -1       162 0.00000E+00 0.00000E+00 0.00000E+00
 -1       163 3.27124E-03 4.76626E-04 4.76626E-04
 -1       164 3.26649E-03 4.81155E-04-9.19403E-17
 -1       165 0.00000E+00 0.00000E+00 0.00000E+00
 -1       166 0.00000E+00 0.00000E+00 0.00000E+00
 -1       167 0.00000E+00 0.00000E+00 0.00000E+00
 -1       168 0.00000E+00 0.00000E+00 0.00000E+00
 -1       169 3.27124E-03 4.76626E-04-4.76626E-04
 -1       170 0.00000E+00 0.00000E+00 0.00000E+00
 -1       171 0.00000E+00 0.00000E+00 0.00000E+00
 -3
    1PSTEP                        38           1           1          
    1PGM                1.000000E+00                                  
    1PGK                1.611259E+07                                  
    1PHID                         -1                                  
    1PSUBC                         0                                  
    1PMODE                        19                                  
  100CL  119 6.38856E+02         171                     2   19MODAL      1
 -4  STRESS      6    1
 -5  SXX         1    4    1    1
 -5  SYY         1    4    2    2
 -5  SZZ         1    4    3    3
 -5  SXY         1    4    1    2
 -5  SYZ         1    4    2    3
 -5  SZX         1    4    3    1
 -1         1 1.04676E+08 8.05374E+06 8.05374E+06-3.72634E+06 2.27898E+05 3.72634E+06
 -1         2 9.34869E+07 6.84787E+06 7.55224E+06 8.38749E-06-3.94881E-06 3.96060E+06
 -1         3 7.92693E+07 7.93959E+05 7.93959E+05-1.45263E-06-3.95818E-07 1.41514E-06
 -1         4 9.34869E+07 7.55224E+06 6.84787E+06-3.96060E+06 2.48780E-07 4.41261E-06
 -1         5 9.19658E+08 9.86359E+06 9.86359E+06 3.30406E+05-9.72185E+05-3.30406E+05
 -1         6 9.42189E+08-1.08321E+07 1.06940E+07 4.62655E-06-6.07147E-06-3.53642E+05
 -1         7 9.63917E+08-1.13557E+07-1.13557E+07 2.10841E-06-1.36746E-06 1.29577E-06
 -1         8 9.42189E+08 1.06940E+07-1.08321E+07 3.53642E+05 3.47830E-06 6.69745E-06
 -1         9 1.03067E+08 9.02061E+06 9.09748E+06 1.69941E+06 5.78394E+05 3.87141E+06
 -1        10 9.03868E+07 5.12519E+06 5.75269E+06 1.81841E-06-5.71017E-07-1.49644E+06
 -1        11 9.03868E+07 5.75269E+06 5.12519E+06 1.49644E+06 4.10917E-07 3.28245E-06
 -1        12 1.03067E+08 9.09748E+06 9.02061E+06-3.87141E+06 5.78394E+05-1.69941E+06
 -1        13 5.00784E+08-9.46845E+06-9.46845E+06 1.15804E+06-1.47816E+05-1.15804E+06
 -1        14 5.05680E+08-2.06555E+07-9.31593E+06 6.43870E-06-3.77634E-06-1.26015E+06
 -1        15 5.08644E+08-2.39629E+07-2.39629E+07 2.19070E-06-2.13101E-06 9.93488E-07
 -1        16 5.05680E+08-9.31593E+06-2.06555E+07 1.26015E+06 7.92439E-07 8.22614E-06
 -1        17 9.35432E+08 1.32988E+06 1.18641E+07 2.17172E+05-3.05363E+05-3.28773E+05
 -1        18 9.57562E+08-9.50846E+06 1.48346E+06 2.42148E-06-9.15660E-06-2.11166E+05
 -1        19 9.57562E+08 1.48346E+06-9.50846E+06 2.11166E+05 1.18803E-06 2.93459E-06
 -1        20 9.35432E+08 1.18641E+07 1.32988E+06 3.28773E+05-3.05363E+05-2.17172E+05
 -1        21 9.34869E+07 6.84787E+06 7.55224E+06-8.88482E-07 9.45304E-06-3.96060E+06
 -1        22 1.04676E+08 8.05374E+06 8.05374E+06-3.72634E+06-2.27898E+05-3.72634E+06
 -1        23 9.42189E+08-1.08321E+07 1.06940E+07-6.77536E-06-1.73446E-06 3.53642E+05
 -1        24 9.19658E+08 9.86359E+06 9.86359E+06 3.30406E+05 9.72185E+05 3.30406E+05
 -1        25 9.03868E+07 5.12519E+06 5.75269E+06-1.97859E-06 3.10078E-06 1.49644E+06
 -1        26 1.03067E+08 9.02061E+06 9.09748E+06 1.69941E+06-5.78394E+05-3.87141E+06
 -1        27 1.03067E+08 9.09748E+06 9.02061E+06-3.87141E+06-5.78394E+05 1.69941E+06
 -1        28 5.05680E+08-2.06555E+07-9.31593E+06-4.23379E-06-1.10321E-06 1.26015E+06
 -1        29 5.00784E+08-9.46845E+06-9.46845E+06 1.15804E+06 1.47816E+05 1.15804E+06
 -1        30 9.57562E+08-9.50846E+06 1.48346E+06-1.92165E-06 3.65080E-06 2.11166E+05
 -1        31 9.35432E+08 1.32988E+06 1.18641E+07 2.17172E+05 3.05363E+05 3.28773E+05
 -1        32 9.35432E+08 1.18641E+07 1.32988E+06 3.28773E+05 3.05363E+05 2.17172E+05
 -1        33-2.91446E+07 5.42148E+04 5.42148E+04 3.45750E+06-1.18597E+05-3.45750E+06
 -1        34-2.98513E+07-4.68817E+05-4.72003E+05-8.93581E-06-1.77831E-06-3.49299E+06
 -1        35-3.07983E+07-1.05347E+06-1.05347E+06 8.62638E-08 5.34425E-06-1.20373E-07
 -1        36-2.98513E+07-4.72003E+05-4.68817E+05 3.49299E+06-1.51750E-06-8.74558E-06
 -1        37 4.75007E+08-1.47981E+07-1.47981E+07-1.22007E+06 7.09959E+04 1.22007E+06
 -1        38 4.82268E+08-2.67082E+07-1.53304E+07-4.17395E-06-1.05804E-06 1.23344E+06
 -1        39 4.89091E+08-2.79106E+07-2.79106E+07-6.91391E-07 2.14303E-06 3.13390E-07
 -1        40 4.82268E+08-1.53304E+07-2.67082E+07-1.23344E+06-3.49595E-07-2.94601E-06
 -1        41-2.96529E+07-2.74140E+05-2.78132E+05-1.84539E+06-8.26547E+04-3.42230E+06
 -1        42-3.04696E+07-8.26020E+05-8.25213E+05-3.52249E-06 9.85425E-07 1.81324E+06
 -1        43-3.04696E+07-8.25213E+05-8.26020E+05-1.81324E+06 3.44339E-06-3.30736E-06
 -1        44-2.96529E+07-2.78132E+05-2.74140E+05 3.42230E+06-8.26547E+04 1.84539E+06
 -1        45-2.98513E+07-4.68817E+05-4.72003E+05 1.25945E-05-1.04945E-06 3.49299E+06
 -1        46-2.91446E+07 5.42148E+04 5.42148E+04 3.45750E+06 1.18597E+05 3.45750E+06
 -1        47 4.82268E+08-2.67082E+07-1.53304E+07 4.68898E-06-4.16295E-06-1.23344E+06
 -1        48 4.75007E+08-1.47981E+07-1.47981E+07-1.22007E+06-7.09959E+04-1.22007E+06
 -1        49-3.04696E+07-8.26020E+05-8.25213E+05 5.98724E-06 2.28200E-06-1.81324E+06
 -1        50-2.96529E+07-2.74140E+05-2.78132E+05-1.84539E+06 8.26547E+04 3.42230E+06
 -1        51-2.96529E+07-2.78132E+05-2.74140E+05 3.42230E+06 8.26547E+04-1.84539E+06
 -1        52-9.26923E+08-1.64927E+07-1.64927E+07-9.36885E+05-4.07765E+05 9.36885E+05
 -1        53-9.43019E+08 1.10150E+07-1.54189E+07 1.59949E-05 2.65735E-06 1.02461E+06
 -1        54-9.57817E+08 1.37492E+07 1.37492E+07 7.88103E-07 2.74904E-06-2.37161E-06
 -1        55-9.43019E+08-1.54189E+07 1.10150E+07-1.02461E+06 1.69798E-06 1.12758E-05
 -1        56-5.04831E+08 1.52030E+07 1.52030E+07-1.00703E+06 8.05199E+04 1.00703E+06
 -1        57-5.12638E+08 2.90975E+07 1.62227E+07 6.96373E-06 5.61762E-07 9.16686E+05
 -1        58-5.19771E+08 3.09801E+07 3.09801E+07-1.44122E-07 4.16954E-06 2.62749E-07
 -1        59-5.12638E+08 1.62227E+07 2.90975E+07-9.16686E+05-1.44125E-06 4.64823E-06
 -1        60-9.39459E+08-4.52439E+06-1.74657E+07-6.50080E+05-8.19917E+05 9.56343E+05
 -1        61-9.54911E+08 1.08700E+07-2.62255E+06 7.01897E-06 3.53981E-06 6.56985E+05
 -1        62-9.54911E+08-2.62255E+06 1.08700E+07-6.56985E+05 1.96218E-06 2.70501E-06
 -1        63-9.39459E+08-1.74657E+07-4.52439E+06-9.56343E+05-8.19917E+05 6.50080E+05
 -1        64-9.43019E+08 1.10150E+07-1.54189E+07-1.80427E-05 1.61241E-06-1.02461E+06
 -1        65-9.26923E+08-1.64927E+07-1.64927E+07-9.36885E+05 4.07765E+05-9.36885E+05
 -1        66-5.12638E+08 2.90975E+07 1.62227E+07-3.41842E-06 1.67557E-06-9.16686E+05
 -1        67-5.04831E+08 1.52030E+07 1.52030E+07-1.00703E+06-8.05199E+04-1.00703E+06
 -1        68-9.54911E+08 1.08700E+07-2.62255E+06-7.43687E-06 1.51229E-06-6.56985E+05
 -1        69-9.39459E+08-4.52439E+06-1.74657E+07-6.50080E+05 8.19917E+05-9.56343E+05
 -1        70-9.39459E+08-1.74657E+07-4.52439E+06-9.56343E+05 8.19917E+05-6.50080E+05
 -1        71 1.08780E+08 6.23199E+07 6.23199E+07 7.66757E+06-1.04981E+06-7.66757E+06
 -1        72 1.26062E+08 5.44843E+07 6.27455E+07-1.02138E-05-5.17990E-07-7.82648E+06
 -1        73 1.45413E+08 5.82062E+07 5.82062E+07 2.02947E-06 2.55957E-06-1.49722E-06
 -1        74 1.26062E+08 6.27455E+07 5.44843E+07 7.82648E+06 8.09718E-06-1.78595E-05
 -1        75-4.57801E+08 1.57986E+07 1.57986E+07 1.32025E+06 1.48103E+06-1.32025E+06
 -1        76-4.72342E+08 2.00954E+07 1.32189E+07 7.97678E-07 1.55462E-06-1.32547E+06
 -1        77-4.85962E+08 1.96676E+07 1.96676E+07 7.94185E-07 2.88101E-06-1.39663E-06
 -1        78-4.72342E+08 1.32189E+07 2.00954E+07 1.32547E+06 4.11242E-06-4.52437E-06
 -1        79 1.17643E+08 5.85160E+07 6.26851E+07 1.03574E+06-7.83282E+05-7.73103E+06
 -1        80 1.35948E+08 5.64925E+07 6.05847E+07-3.05055E-06 1.66881E-06-1.00320E+06
 -1        81 1.35948E+08 6.05847E+07 5.64925E+07 1.00320E+06 5.14116E-06-8.15745E-06
 -1        82 1.17643E+08 6.26851E+07 5.85160E+07 7.73103E+06-7.83282E+05-1.03574E+06
 -1        83 1.26062E+08 5.44843E+07 6.27455E+07 1.40709E-05-1.67880E-06 7.82648E+06
 -1        84 1.08780E+08 6.23199E+07 6.23199E+07 7.66757E+06 1.04981E+06 7.66757E+06
 -1        85-4.72342E+08 2.00954E+07 1.32189E+07-6.67293E-07 5.38515E-07 1.32547E+06
 -1        86-4.57801E+08 1.57986E+07 1.57986E+07 1.32025E+06-1.48103E+06 1.32025E+06
 -1        87 1.35948E+08 5.64925E+07 6.05847E+07 7.06944E-06-1.37297E-07 1.00320E+06
 -1        88 1.17643E+08 5.85160E+07 6.26851E+07 1.03574E+06 7.83282E+05 7.73103E+06
 -1        89 1.17643E+08 6.26851E+07 5.85160E+07 7.73103E+06 7.83282E+05 1.03574E+06
 -1        90 1.10271E+09 4.72597E+08 4.72597E+08-7.37519E+07 2.06194E+01 7.37519E+07
 -1        91 1.07791E+09 4.61968E+08 4.61968E+08 2.80648E-06 9.36279E-09 7.42983E+07
 -1        92 1.05253E+09 4.51091E+08 4.51091E+08-5.52602E-06 1.09139E-11-5.61193E-06
 -1        93 1.07791E+09 4.61968E+08 4.61968E+08-7.42983E+07 3.95676E-09 3.79191E-06
 -1        94 4.42542E+08-7.80114E+07-7.80114E+07-8.56330E+06-1.31679E+06 8.56330E+06
 -1        95 4.59701E+08-7.86178E+07-7.52791E+07-2.70084E-06-1.19035E-07 8.70523E+06
 -1        96 4.78154E+08-7.41265E+07-7.41265E+07-1.06636E-06 1.86637E-06-2.21189E-06
 -1        97 4.59701E+08-7.52791E+07-7.86178E+07-8.70523E+06 4.03327E-06-4.08385E-06
 -1        98 1.09461E+09 4.69112E+08 4.69112E+08-3.70342E+07-2.32767E+01 7.40207E+07
 -1        99 1.06955E+09 4.58371E+08 4.58371E+08-1.47143E-06-1.31786E-09 3.72872E+07
 -1       100 1.06955E+09 4.58371E+08 4.58371E+08-3.72872E+07 8.29550E-09-1.09727E-06
 -1       101 1.09461E+09 4.69112E+08 4.69112E+08-7.40207E+07-2.32767E+01 3.70342E+07
 -1       102 1.07791E+09 4.61968E+08 4.61968E+08-1.43796E-05-1.89866E-08-7.42983E+07
 -1       103 1.10271E+09 4.72597E+08 4.72597E+08-7.37519E+07-2.06194E+01-7.37519E+07
 -1       104 4.59701E+08-7.86178E+07-7.52791E+07-1.12038E-06 9.54547E-07-8.70523E+06
 -1       105 4.42542E+08-7.80114E+07-7.80114E+07-8.56330E+06 1.31679E+06-8.56330E+06
 -1       106 1.06955E+09 4.58371E+08 4.58371E+08-9.73046E-06 2.15368E-09-3.72872E+07
 -1       107 1.09461E+09 4.69112E+08 4.69112E+08-3.70342E+07 2.32767E+01-7.40207E+07
 -1       108 1.09461E+09 4.69112E+08 4.69112E+08-7.40207E+07 2.32767E+01-3.70342E+07
 -1       109 1.04676E+08 8.05374E+06 8.05374E+06 3.72634E+06-2.27898E+05 3.72634E+06
 -1       110 9.34869E+07 7.55224E+06 6.84787E+06 3.96060E+06-4.88432E-06-3.09665E-06
 -1       111 9.19658E+08 9.86359E+06 9.86359E+06-3.30406E+05 9.72185E+05-3.30406E+05
 -1       112 9.42189E+08 1.06940E+07-1.08321E+07-3.53642E+05-2.25772E-06-1.36279E-06
 -1       113 1.03067E+08 9.02061E+06 9.09748E+06-1.69941E+06-5.78394E+05 3.87141E+06
 -1       114 1.03067E+08 9.09748E+06 9.02061E+06 3.87141E+06-5.78394E+05-1.69941E+06
 -1       115 9.03868E+07 5.75269E+06 5.12519E+06-1.49644E+06-3.12872E-06 1.45007E-06
 -1       116 5.00784E+08-9.46845E+06-9.46845E+06-1.15804E+06 1.47816E+05-1.15804E+06
 -1       117 5.05680E+08-9.31593E+06-2.06555E+07-1.26015E+06-3.21399E-06-3.42214E-06
 -1       118 9.35432E+08 1.32988E+06 1.18641E+07-2.17172E+05 3.05363E+05-3.28773E+05
 -1       119 9.35432E+08 1.18641E+07 1.32988E+06-3.28773E+05 3.05363E+05-2.17172E+05
 -1       120 9.57562E+08 1.48346E+06-9.50846E+06-2.11166E+05-2.47906E-06-2.07023E-06
 -1       121 1.04676E+08 8.05374E+06 8.05374E+06 3.72634E+06 2.27898E+05-3.72634E+06
 -1       122 9.19658E+08 9.86359E+06 9.86359E+06-3.30406E+05-9.72185E+05 3.30406E+05
 -1       123 1.03067E+08 9.09748E+06 9.02061E+06 3.87141E+06 5.78394E+05 1.69941E+06
 -1       124 1.03067E+08 9.02061E+06 9.09748E+06-1.69941E+06 5.78394E+05-3.87141E+06
 -1       125 5.00784E+08-9.46845E+06-9.46845E+06-1.15804E+06-1.47816E+05 1.15804E+06
 -1       126 9.35432E+08 1.18641E+07 1.32988E+06-3.28773E+05-3.05363E+05 2.17172E+05
 -1       127 9.35432E+08 1.32988E+06 1.18641E+07-2.17172E+05-3.05363E+05 3.28773E+05
 -1       128-2.91446E+07 5.42148E+04 5.42148E+04-3.45750E+06 1.18597E+05-3.45750E+06
 -1       129-2.98513E+07-4.72003E+05-4.68817E+05-3.49299E+06 3.44763E-06 1.12010E-05
 -1       130 4.75007E+08-1.47981E+07-1.47981E+07 1.22007E+06-7.09959E+04 1.22007E+06
 -1       131 4.82268E+08-1.53304E+07-2.67082E+07 1.23344E+06 6.28293E-07 5.79632E-06
 -1       132-2.96529E+07-2.74140E+05-2.78132E+05 1.84539E+06 8.26547E+04-3.42230E+06
 -1       133-2.96529E+07-2.78132E+05-2.74140E+05-3.42230E+06 8.26547E+04 1.84539E+06
 -1       134-3.04696E+07-8.25213E+05-8.26020E+05 1.81324E+06 3.60886E-06 5.06174E-06
 -1       135-2.91446E+07 5.42148E+04 5.42148E+04-3.45750E+06-1.18597E+05 3.45750E+06
 -1       136 4.75007E+08-1.47981E+07-1.47981E+07 1.22007E+06 7.09959E+04-1.22007E+06
 -1       137-2.96529E+07-2.78132E+05-2.74140E+05-3.42230E+06-8.26547E+04-1.84539E+06
 -1       138-2.96529E+07-2.74140E+05-2.78132E+05 1.84539E+06-8.26547E+04 3.42230E+06
 -1       139-9.26923E+08-1.64927E+07-1.64927E+07 9.36885E+05 4.07765E+05 9.36885E+05
 -1       140-9.43019E+08-1.54189E+07 1.10150E+07 1.02461E+06-1.60362E-06-2.07507E-05
 -1       141-5.04831E+08 1.52030E+07 1.52030E+07 1.00703E+06-8.05199E+04 1.00703E+06
 -1       142-5.12638E+08 1.62227E+07 2.90975E+07 9.16686E+05 1.18747E-06-5.20796E-06
 -1       143-9.39459E+08-4.52439E+06-1.74657E+07 6.50080E+05 8.19917E+05 9.56343E+05
 -1       144-9.39459E+08-1.74657E+07-4.52439E+06 9.56343E+05 8.19917E+05 6.50080E+05
 -1       145-9.54911E+08-2.62255E+06 1.08700E+07 6.56985E+05 5.41302E-07-9.11985E-06
 -1       146-9.26923E+08-1.64927E+07-1.64927E+07 9.36885E+05-4.07765E+05-9.36885E+05
 -1       147-5.04831E+08 1.52030E+07 1.52030E+07 1.00703E+06 8.05199E+04-1.00703E+06
 -1       148-9.39459E+08-1.74657E+07-4.52439E+06 9.56343E+05-8.19917E+05-6.50080E+05
 -1       149-9.39459E+08-4.52439E+06-1.74657E+07 6.50080E+05-8.19917E+05-9.56343E+05
 -1       150 1.08780E+08 6.23199E+07 6.23199E+07-7.66757E+06 1.04981E+06-7.66757E+06
 -1       151 1.26062E+08 6.27455E+07 5.44843E+07-7.82648E+06-2.58238E-06 1.39442E-05
 -1       152-4.57801E+08 1.57986E+07 1.57986E+07-1.32025E+06-1.48103E+06-1.32025E+06
 -1       153-4.72342E+08 1.32189E+07 2.00954E+07-1.32547E+06-1.48489E-06-3.87896E-06
 -1       154 1.17643E+08 5.85160E+07 6.26851E+07-1.03574E+06 7.83282E+05-7.73103E+06
 -1       155 1.17643E+08 6.26851E+07 5.85160E+07-7.73103E+06 7.83282E+05-1.03574E+06
 -1       156 1.35948E+08 6.05847E+07 5.64925E+07-1.00320E+06 5.97400E-07 5.54346E-06
 -1       157 1.08780E+08 6.23199E+07 6.23199E+07-7.66757E+06-1.04981E+06 7.66757E+06
 -1       158-4.57801E+08 1.57986E+07 1.57986E+07-1.32025E+06 1.48103E+06 1.32025E+06
 -1       159 1.17643E+08 6.26851E+07 5.85160E+07-7.73103E+06-7.83282E+05 1.03574E+06
 -1       160 1.17643E+08 5.85160E+07 6.26851E+07-1.03574E+06-7.83282E+05 7.73103E+06
 -1       161 1.10271E+09 4.72597E+08 4.72597E+08 7.37519E+07-2.06194E+01 7.37519E+07
 -1       162 1.07791E+09 4.61968E+08 4.61968E+08 7.42983E+07 2.73831E-08-1.48644E-05
 -1       163 4.42542E+08-7.80114E+07-7.80114E+07 8.56330E+06 1.31679E+06 8.56330E+06
 -1       164 4.59701E+08-7.52791E+07-7.86178E+07 8.70523E+06-1.12009E-06 2.02842E-06
 -1       165 1.09461E+09 4.69112E+08 4.69112E+08 3.70342E+07 2.32767E+01 7.40207E+07
 -1       166 1.09461E+09 4.69112E+08 4.69112E+08 7.40207E+07 2.32767E+01 3.70342E+07
 -1       167 1.06955E+09 4.58371E+08 4.58371E+08 3.72872E+07 4.57658E-09-1.02681E-05
 -1       168 1.10271E+09 4.72597E+08 4.72597E+08 7.37519E+07 2.06194E+01-7.37519E+07
 -1       169 4.42542E+08-7.80114E+07-7.80114E+07 8.56330E+06-1.31679E+06-8.56330E+06
 -1       170 1.09461E+09 4.69112E+08 4.69112E+08 7.40207E+07-2.32767E+01-3.70342E+07
 -1       171 1.09461E+09 4.69112E+08 4.69112E+08 3.70342E+07-2.32767E+01-7.40207E+07
 -3
    1PSTEP                        39           1           1          
    1PGM                1.000000E+00                                  
    1PGK                1.904539E+07                                  
    1PHID                         -1                                  
    1PSUBC                         0                                  
    1PMODE                        20                                  
  100CL  120 6.94569E+02         171                     2   20MODAL      1
 -4  DISP        4    1
 -5  D1          1    2    1    0
 -5  D2          1    2    2    0
 -5  D3          1    2    3    0
 -5  ALL         1    2    0    0    1ALL
 -1         1-1.57426E-16 5.49751E-03 5.49751E-03
 -1         2-2.22695E-16 5.31272E-03-1.01000E-16
 -1         3-1.62197E-16-7.41594E-17-8.50015E-17
 -1         4-1.32490E-16-8.89046E-17 5.31272E-03
 -1         5-5.20417E-18-4.83623E-03-4.83623E-03
 -1         6 1.56667E-17-4.82831E-03 2.99240E-17
 -1         7-1.17094E-17 2.48391E-16 5.89806E-17
 -1         8-4.18502E-17 7.50268E-17-4.82831E-03
 -1         9 4.63736E-04 5.39796E-03 2.77060E-03
 -1        10-1.94723E-16 2.64574E-03-9.32414E-17
 -1        11-1.48210E-16-1.15359E-16 2.64574E-03
 -1        12-4.63736E-04 2.77060E-03 5.39796E-03
 -1        13-1.46313E-16 7.61813E-04 7.61813E-04
 -1        14-1.46367E-16 8.39624E-04 3.94650E-17
 -1        15-1.28478E-16 4.39102E-18 2.75387E-17
 -1        16-8.84709E-17 6.07153E-17 8.39624E-04
 -1        17 1.43109E-04-4.83479E-03-2.40753E-03
 -1        18-3.57787E-18-2.41995E-03 5.48064E-17
 -1        19-2.67798E-17 1.41163E-16-2.41995E-03
 -1        20-1.43109E-04-2.40753E-03-4.83479E-03
 -1        21-1.39428E-16-5.31272E-03-8.47846E-17
 -1        22-5.44269E-17-5.49751E-03 5.49751E-03
 -1        23-3.29597E-17 4.82831E-03 1.02349E-16
 -1        24-6.41848E-17 4.83623E-03-4.83623E-03
 -1        25-1.62197E-16-2.64574E-03-7.24247E-17
 -1        26-4.63736E-04-5.39796E-03 2.77060E-03
 -1        27 4.63736E-04-2.77060E-03 5.39796E-03
 -1        28-8.06646E-17-8.39624E-04 1.06252E-17
 -1        29-9.06393E-17-7.61813E-04 7.61813E-04
 -1        30-2.08167E-17 2.41995E-03 9.06393E-17
 -1        31-1.43109E-04 4.83479E-03-2.40753E-03
 -1        32 1.43109E-04 2.40753E-03-4.83479E-03
 -1        33 1.15955E-16 4.31753E-03 4.31753E-03
 -1        34 9.74749E-17 4.28745E-03-4.51028E-17
 -1        35 9.88792E-17-9.60603E-17-6.33174E-17
 -1        36 1.14492E-16-9.75782E-17 4.28745E-03
 -1        37 1.02782E-16-2.79440E-03-2.79440E-03
 -1        38 1.50704E-16-2.72446E-03-3.94650E-17
 -1        39 1.06252E-16-1.25767E-17-1.86483E-17
 -1        40 4.01155E-17 1.73472E-17-2.72446E-03
 -1        41-4.80476E-04 4.30543E-03 2.14756E-03
 -1        42 1.02840E-16 2.14964E-03-6.07153E-17
 -1        43 9.58435E-17-9.43256E-17 2.14964E-03
 -1        44 4.80476E-04 2.14756E-03 4.30543E-03
 -1        45 1.00614E-16-4.28745E-03-5.16080E-17
 -1        46 1.15359E-16-4.31753E-03 4.31753E-03
 -1        47 3.83265E-17 2.72446E-03 9.54098E-18
 -1        48 5.42101E-18 2.79440E-03-2.79440E-03
 -1        49 9.97466E-17-2.14964E-03-5.72459E-17
 -1        50 4.80476E-04-4.30543E-03 2.14756E-03
 -1        51-4.80476E-04-2.14756E-03 4.30543E-03
 -1        52-3.46945E-17-3.53274E-03-3.53274E-03
 -1        53 8.67362E-18-3.52068E-03 4.90059E-17
 -1        54-5.88180E-18 7.93636E-17 4.42354E-17
 -1        55-4.42354E-17 8.28330E-17-3.52068E-03
 -1        56 3.31766E-17 4.68197E-03 4.68197E-03
 -1        57 6.28837E-18 4.55080E-03 1.10589E-17
 -1        58 2.42319E-17 1.45283E-17 3.62124E-17
 -1        59 5.42101E-17 2.19009E-17 4.55080E-03
 -1        60 6.95000E-04-3.52767E-03-1.76271E-03
 -1        61-1.73472E-18-1.76226E-03 4.20670E-17
 -1        62-3.26480E-17 5.07407E-17-1.76226E-03
 -1        63-6.95000E-04-1.76271E-03-3.52767E-03
 -1        64-2.66714E-17 3.52068E-03 3.98986E-17
 -1        65-5.89806E-17 3.53274E-03-3.53274E-03
 -1        66 4.64039E-17-4.55080E-03 5.11743E-17
 -1        67 6.15827E-17-4.68197E-03 4.68197E-03
 -1        68-1.23735E-17 1.76226E-03 4.16334E-17
 -1        69-6.95000E-04 3.52767E-03-1.76271E-03
 -1        70 6.95000E-04 1.76271E-03-3.52767E-03
 -1        71 2.40693E-17 2.30268E-03 2.30268E-03
 -1        72-1.52873E-17 2.33584E-03-1.95156E-17
 -1        73 5.55112E-17-5.07407E-17-2.60209E-17
 -1        74 1.07661E-16-2.68882E-17 2.33584E-03
 -1        75-3.03577E-17-6.30790E-03-6.30790E-03
 -1        76 1.08420E-17-6.15238E-03-4.47775E-17
 -1        77 1.16010E-17-6.24500E-17-3.57787E-17
 -1        78-1.47451E-17-2.04372E-17-6.15238E-03
 -1        79-7.00077E-04 2.31691E-03 1.16017E-03
 -1        80 1.62088E-17 1.16335E-03-2.12504E-17
 -1        81 8.68446E-17-6.53232E-18 1.16335E-03
 -1        82 7.00077E-04 1.16017E-03 2.31691E-03
 -1        83 1.17961E-16-2.33584E-03-5.20417E-17
 -1        84 1.83013E-16-2.30268E-03 2.30268E-03
 -1        85 1.21431E-17 6.15238E-03-2.47198E-17
 -1        86 4.33681E-18 6.30790E-03-6.30790E-03
 -1        87 9.62772E-17-1.16335E-03-3.51010E-17
 -1        88 7.00077E-04-2.31691E-03 1.16017E-03
 -1        89-7.00077E-04-1.16017E-03 2.31691E-03
 -1        90 0.00000E+00 0.00000E+00 0.00000E+00
 -1        91 0.00000E+00 0.00000E+00 0.00000E+00
 -1        92 0.00000E+00 0.00000E+00 0.00000E+00
 -1        93 0.00000E+00 0.00000E+00 0.00000E+00
 -1        94 3.41524E-17 7.65755E-03 7.65755E-03
 -1        95 9.54098E-18 7.58416E-03 1.14709E-16
 -1        96 4.42354E-17 5.85469E-17 9.98550E-17
 -1        97 7.09610E-17 6.35342E-17 7.58416E-03
 -1        98 0.00000E+00 0.00000E+00 0.00000E+00
 -1        99 0.00000E+00 0.00000E+00 0.00000E+00
 -1       100 0.00000E+00 0.00000E+00 0.00000E+00
 -1       101 0.00000E+00 0.00000E+00 0.00000E+00
 -1       102 0.00000E+00 0.00000E+00 0.00000E+00
 -1       103 0.00000E+00 0.00000E+00 0.00000E+00
 -1       104 7.63278E-17-7.58416E-03 6.93889E-17
 -1       105 1.17744E-16-7.65755E-03 7.65755E-03
 -1       106 0.00000E+00 0.00000E+00 0.00000E+00
 -1       107 0.00000E+00 0.00000E+00 0.00000E+00
 -1       108 0.00000E+00 0.00000E+00 0.00000E+00
 -1       109-2.51535E-16 5.49751E-03-5.49751E-03
 -1       110-2.17803E-16-9.90961E-17-5.31272E-03
 -1       111 6.37511E-17-4.83623E-03 4.83623E-03
 -1       112 1.17094E-17 3.52908E-17 4.82831E-03
 -1       113-4.63736E-04 5.39796E-03-2.77060E-03
 -1       114 4.63736E-04 2.77060E-03-5.39796E-03
 -1       115-1.91253E-16-8.31719E-17-2.64574E-03
 -1       116-1.51734E-16 7.61813E-04-7.61813E-04
 -1       117-1.45717E-16 7.80626E-17-8.39624E-04
 -1       118-1.43109E-04-4.83479E-03 2.40753E-03
 -1       119 1.43109E-04-2.40753E-03 4.83479E-03
 -1       120-1.08420E-19 5.63785E-17 2.41995E-03
 -1       121-1.63687E-16-5.49751E-03-5.49751E-03
 -1       122-6.07153E-18 4.83623E-03 4.83623E-03
 -1       123-4.63736E-04-2.77060E-03-5.39796E-03
 -1       124 4.63736E-04-5.39796E-03-2.77060E-03
 -1       125-1.15142E-16-7.61813E-04-7.61813E-04
 -1       126-1.43109E-04 2.40753E-03 4.83479E-03
 -1       127 1.43109E-04 4.83479E-03 2.40753E-03
 -1       128 7.74120E-17 4.31753E-03-4.31753E-03
 -1       129 8.67362E-17-6.59127E-17-4.28745E-03
 -1       130 1.79978E-16-2.79440E-03 2.79440E-03
 -1       131 1.56342E-16-4.51028E-17 2.72446E-03
 -1       132 4.80476E-04 4.30543E-03-2.14756E-03
 -1       133-4.80476E-04 2.14756E-03-4.30543E-03
 -1       134 9.38919E-17-4.96565E-17-2.14964E-03
 -1       135 9.45424E-17-4.31753E-03-4.31753E-03
 -1       136 1.20780E-16 2.79440E-03 2.79440E-03
 -1       137 4.80476E-04-2.14756E-03-4.30543E-03
 -1       138-4.80476E-04-4.30543E-03-2.14756E-03
 -1       139 6.54858E-17-3.53274E-03 3.53274E-03
 -1       140 4.90059E-17 5.16080E-17 3.52068E-03
 -1       141 1.30104E-18 4.68197E-03-4.68197E-03
 -1       142 6.93889E-18 5.07407E-17-4.55080E-03
 -1       143-6.95000E-04-3.52767E-03 1.76271E-03
 -1       144 6.95000E-04-1.76271E-03 3.52767E-03
 -1       145 2.68882E-17 8.02310E-17 1.76226E-03
 -1       146 2.08167E-17 3.53274E-03 3.53274E-03
 -1       147 2.15756E-17-4.68197E-03-4.68197E-03
 -1       148-6.95000E-04 1.76271E-03 3.52767E-03
 -1       149 6.95000E-04 3.52767E-03 1.76271E-03
 -1       150-4.94396E-17 2.30268E-03-2.30268E-03
 -1       151 7.37257E-18-6.33174E-17-2.33584E-03
 -1       152 5.07407E-17-6.30790E-03 6.30790E-03
 -1       153 5.72459E-17-6.07153E-17 6.15238E-03
 -1       154 7.00077E-04 2.31691E-03-1.16017E-03
 -1       155-7.00077E-04 1.16017E-03-2.31691E-03
 -1       156 3.20924E-17-5.68122E-17-1.16335E-03
 -1       157 6.00648E-17-2.30268E-03-2.30268E-03
 -1       158 7.02563E-17 6.30790E-03 6.30790E-03
 -1       159 7.00077E-04-1.16017E-03-2.31691E-03
 -1       160-7.00077E-04-2.31691E-03-1.16017E-03
 -1       161 0.00000E+00 0.00000E+00 0.00000E+00
 -1       162 0.00000E+00 0.00000E+00 0.00000E+00
 -1       163-4.77049E-18 7.65755E-03-7.65755E-03
 -1       164 1.12757E-17 4.57533E-17-7.58416E-03
 -1       165 0.00000E+00 0.00000E+00 0.00000E+00
 -1       166 0.00000E+00 0.00000E+00 0.00000E+00
 -1       167 0.00000E+00 0.00000E+00 0.00000E+00
 -1       168 0.00000E+00 0.00000E+00 0.00000E+00
 -1       169 2.42861E-17-7.65755E-03-7.65755E-03
 -1       170 0.00000E+00 0.00000E+00 0.00000E+00
 -1       171 0.00000E+00 0.00000E+00 0.00000E+00
 -3
    1PSTEP                        40           1           1          
    1PGM                1.000000E+00                                  
    1PGK                1.904539E+07                                  
    1PHID                         -1                                  
    1PSUBC                         0                                  
    1PMODE                        20                                  
  100CL  120 6.94569E+02         171                     2   20MODAL      1
 -4  STRESS      6    1
 -5  SXX         1    4    1    1
 -5  SYY         1    4    2    2
 -5  SZZ         1    4    3    3
 -5  SXY         1    4    1    2
 -5  SYZ         1    4    2    3
 -5  SZX         1    4    3    1
 -1         1-1.27402E-06 6.56585E+07-6.56585E+07 4.57329E+07-1.14671E-05 4.57329E+07
 -1         2-2.02581E-05-3.69698E-05-8.45268E-06 5.83500E+08 3.53362E+07-7.94185E-06
 -1         3-5.79163E-06-2.82790E-05 3.73639E-06 6.72857E-06 6.81849E-06-7.58213E-06
 -1         4 6.07967E-06 4.95538E-05-8.04663E-07-1.17617E-05-3.53362E+07 5.83500E+08
 -1         5 6.07793E-06 6.58449E+05-6.58449E+05 1.62796E+08-1.59208E-06 1.62796E+08
 -1         6-6.82471E-05-7.16457E-05-1.11731E-05 3.42513E+08 1.73351E+06-6.83591E-07
 -1         7-3.14265E-06 6.84496E-05 3.40534E-05-3.11621E-06 3.67613E-06 2.27254E-06
 -1         8-2.09984E-05-3.97835E-05 1.43298E-05-1.39000E-06-1.73351E+06 3.42513E+08
 -1         9 5.36894E+07 8.58830E+07-1.37947E+07 3.14454E+08 1.87682E+07-4.80336E+07
 -1        10-2.12342E-07-6.18398E-07 7.33882E-06 2.20231E+08 1.65679E+07-5.41378E-06
 -1        11-1.16229E-05-1.43480E-05-1.24499E-05-4.14206E-06-1.65679E+07 2.20231E+08
 -1        12-5.36894E+07 1.37947E+07-8.58830E+07-4.80336E+07-1.87682E+07 3.14454E+08
 -1        13-6.33011E-06-1.79931E+07 1.79931E+07 2.10738E+08 1.47314E-06 2.10738E+08
 -1        14-4.37777E-05-4.20436E-05-2.44323E-05 5.76772E+08-7.04098E+06-4.70970E-06
 -1        15-1.63205E-05 1.43303E-06-5.67686E-06-7.88039E-06 1.00398E-05-7.61822E-07
 -1        16 2.45832E-05 8.27871E-05 2.93888E-05 3.11993E-08 7.04098E+06 5.76772E+08
 -1        17 5.76966E+07 1.89425E+07 1.60098E+07 2.52461E+08 1.25380E+06 6.00169E+07
 -1        18-4.96578E-05-2.48615E-05-1.06947E-05 1.48922E+08 4.79715E+05 1.56299E-06
 -1        19-5.85805E-05-9.46420E-05-2.34919E-05-3.35299E-06-4.79715E+05 1.48922E+08
 -1        20-5.76966E+07-1.60098E+07-1.89425E+07 6.00169E+07-1.25380E+06 2.52461E+08
 -1        21-1.30720E-05 1.97217E-05-2.03736E-05-5.83500E+08 3.53362E+07 3.56091E-06
 -1        22-5.00255E-05-6.56585E+07 6.56585E+07-4.57329E+07-3.11920E-05 4.57329E+07
 -1        23-5.88279E-05-1.07426E-04-4.92971E-05-3.42513E+08 1.73351E+06-3.62773E-06
 -1        24 3.42614E-05-6.58449E+05 6.58449E+05-1.62796E+08 1.12348E-05 1.62796E+08
 -1        25 4.08851E-06 2.64868E-05 1.03600E-05-2.20231E+08 1.65679E+07-6.13276E-06
 -1        26-5.36894E+07-8.58830E+07 1.37947E+07-3.14454E+08 1.87682E+07-4.80336E+07
 -1        27 5.36894E+07-1.37947E+07 8.58830E+07 4.80336E+07-1.87682E+07 3.14454E+08
 -1        28-2.94242E-05-2.30148E-05-3.96147E-05-5.76772E+08-7.04098E+06 3.20282E-06
 -1        29-2.76384E-05 1.79931E+07-1.79931E+07-2.10738E+08-1.19231E-05 2.10738E+08
 -1        30-3.78363E-05-4.16639E-05-6.41419E-06-1.48922E+08 4.79715E+05-5.87082E-07
 -1        31-5.76966E+07-1.89425E+07-1.60098E+07-2.52461E+08 1.25380E+06 6.00169E+07
 -1        32 5.76966E+07 1.60098E+07 1.89425E+07-6.00169E+07-1.25380E+06 2.52461E+08
 -1        33-4.20658E-05 5.63813E+06-5.63813E+06-2.54362E+08-2.29534E-06-2.54362E+08
 -1        34 6.25001E-05 8.55699E-05 2.73604E-05-8.30170E+08 1.37041E+06-3.68804E-07
 -1        35 7.66209E-06-2.81206E-05-1.97857E-06-6.92304E-06-1.70975E-05-5.49539E-06
 -1        36-1.37184E-05-1.58395E-05-2.01361E-05 8.66922E-06-1.37041E+06-8.30170E+08
 -1        37-2.33266E-05-2.17774E+07 2.17774E+07-2.48271E+08 9.13906E-07-2.48271E+08
 -1        38 5.58142E-06 2.50749E-05 2.07480E-05-4.54421E+08-1.09107E+07-3.91202E-06
 -1        39 8.33369E-06 3.78196E-05 2.68178E-05 2.30107E-06-9.15482E-06-3.38338E-06
 -1        40 1.58884E-06 3.48473E-05 2.25529E-05-2.30502E-07 1.09107E+07-4.54421E+08
 -1        41-2.83702E+07 2.11037E+06-4.69531E+06-5.42297E+08 2.33273E+05-5.31275E+07
 -1        42 3.26299E-05 2.43004E-05 9.44862E-06-3.41241E+08 1.13714E+06-3.66755E-06
 -1        43 1.02282E-05 3.84205E-06 6.01698E-06-4.47035E-08-1.13714E+06-3.41241E+08
 -1        44 2.83702E+07 4.69531E+06-2.11037E+06-5.31275E+07-2.33273E+05-5.42297E+08
 -1        45 3.84864E-05 9.02815E-05 4.23025E-05 8.30170E+08 1.37041E+06-3.87465E-06
 -1        46-4.60993E-05-5.63813E+06 5.63813E+06 2.54362E+08-1.31627E-05-2.54362E+08
 -1        47-7.76164E-06 1.29975E-05 5.67921E-06 4.54421E+08-1.09107E+07-4.90062E-06
 -1        48-1.73273E-06 2.17774E+07-2.17774E+07 2.48271E+08 3.86446E-06-2.48271E+08
 -1        49 2.58914E-05 3.76590E-05 2.33760E-05 3.41241E+08 1.13714E+06-4.18164E-06
 -1        50 2.83702E+07-2.11037E+06 4.69531E+06 5.42297E+08 2.33273E+05-5.31275E+07
 -1        51-2.83702E+07-4.69531E+06 2.11037E+06 5.31275E+07-2.33273E+05-5.42297E+08
 -1        52 1.27841E-05-2.52133E+06 2.52133E+06 3.78938E+08 2.27517E-06 3.78938E+08
 -1        53 1.06724E-05 4.76758E-05 9.92732E-06 1.21349E+09-7.91003E+05 4.51691E-07
 -1        54-1.52852E-05-3.89837E-05-1.31766E-05-4.40294E-06 2.63166E-06 5.56599E-06
 -1        55 3.02657E-05 5.79876E-05-2.18768E-06 3.31365E-06 7.91003E+05 1.21349E+09
 -1        56-9.33695E-06 3.91493E+07-3.91493E+07 2.35933E+08 5.66565E-06 2.35933E+08
 -1        57 4.37163E-05 7.81044E-05 3.80017E-05 3.66328E+08 1.90848E+07-5.58794E-07
 -1        58 1.38801E-06-3.35769E-05 3.30531E-06-6.85803E-06-9.03875E-06-7.96281E-07
 -1        59 1.88313E-05 2.61795E-05-1.63913E-05 3.35369E-06-1.90848E+07 3.66328E+08
 -1        60 1.16562E+07-5.00774E+05 2.75457E+06 7.96316E+08-2.46833E+05 8.21596E+07
 -1        61-1.29454E-06 5.88899E-06-1.31023E-06 5.00023E+08-5.44169E+05 3.16836E-06
 -1        62 4.63054E-06 9.76666E-07-5.89498E-06-7.55303E-07 5.44169E+05 5.00023E+08
 -1        63-1.16562E+07-2.75457E+06 5.00774E+05 8.21596E+07 2.46833E+05 7.96316E+08
 -1        64-1.17604E-05-4.73335E-05-1.75579E-05-1.21349E+09-7.91003E+05 9.54606E-08
 -1        65 2.31834E-05 2.52133E+06-2.52133E+06-3.78938E+08-1.21175E-05 3.78938E+08
 -1        66 3.35518E-05 3.99947E-05 2.93702E-05-3.66328E+08 1.90848E+07-1.32807E-06
 -1        67 7.96560E-06-3.91493E+07 3.91493E+07-2.35933E+08-7.11961E-06 2.35933E+08
 -1        68-1.55599E-05-4.34744E-05-2.02341E-05-5.00023E+08-5.44169E+05 2.82447E-06
 -1        69-1.16562E+07 5.00774E+05-2.75457E+06-7.96316E+08-2.46833E+05 8.21596E+07
 -1        70 1.16562E+07 2.75457E+06-5.00774E+05-8.21596E+07 2.46833E+05 7.96316E+08
 -1        71-8.13185E-06-7.30888E+06 7.30888E+06-5.75515E+08-1.12773E-05-5.75515E+08
 -1        72-6.95372E-06-1.49226E-05-7.86083E-06-1.41978E+09-2.47604E+06-4.55650E-06
 -1        73 7.30416E-06 3.74408E-05 7.69640E-06-1.78511E-06-7.25413E-06 3.20934E-06
 -1        74-4.38620E-05-6.43595E-05-3.21213E-05-3.42401E-06 2.47604E+06-1.41978E+09
 -1        75 9.00637E-07-4.58113E+07 4.58113E+07-2.22883E+08 1.43166E-06-2.22883E+08
 -1        76 1.31130E-05 2.36407E-05 1.20625E-05-2.26819E+08-2.20812E+07 9.44361E-07
 -1        77-2.91526E-06 4.14198E-06 6.59183E-06-1.90525E-06-4.87813E-06 6.20424E-06
 -1        78-1.55941E-05 7.58842E-06-9.00775E-06 8.72649E-07 2.20812E+07-2.26819E+08
 -1        79 3.87737E+07 1.83856E+06 1.15731E+07-9.97665E+08-8.76141E+05-1.79982E+08
 -1        80 1.41119E-06 1.35088E-05 2.37062E-06-6.02221E+08-1.59990E+06-1.60746E-06
 -1        81-1.24476E-05 3.21335E-06-8.21077E-06-1.99024E-06 1.59990E+06-6.02221E+08
 -1        82-3.87737E+07-1.15731E+07-1.83856E+06-1.79982E+08 8.76141E+05-9.97665E+08
 -1        83-4.63333E-06 3.26773E-05-9.58331E-06 1.41978E+09-2.47604E+06-4.16208E-06
 -1        84-1.47833E-05 7.30888E+06-7.30888E+06 5.75515E+08 1.24595E-05-5.75515E+08
 -1        85-1.65142E-05-2.53320E-06-4.26918E-06 2.26819E+08-2.20812E+07-4.22820E-07
 -1        86-1.03908E-05 4.58113E+07-4.58113E+07 2.22883E+08-2.87243E-06-2.22883E+08
 -1        87-6.85686E-08 2.96570E-05-9.45292E-07 6.02221E+08-1.59990E+06-1.58790E-07
 -1        88-3.87737E+07-1.83856E+06-1.15731E+07 9.97665E+08-8.76141E+05-1.79982E+08
 -1        89 3.87737E+07 1.15731E+07 1.83856E+06 1.79982E+08 8.76141E+05-9.97665E+08
 -1        90 1.51573E-05-2.20396E+02 2.20396E+02 1.08952E+09 9.19951E-07 1.08952E+09
 -1        91 7.22445E-06 3.31292E-06 3.04788E-06 1.07696E+09 4.72132E+01 1.84113E-05
 -1        92 1.61999E-05 6.69454E-06 6.82209E-06 1.09249E-05-5.93743E-08 1.63680E-05
 -1        93 2.40547E-05 1.07121E-05 1.07387E-05 1.07279E-05-4.72132E+01 1.07696E+09
 -1        94 3.14678E-06 2.40291E+07-2.40291E+07 3.03978E+08-6.02320E-06 3.03978E+08
 -1        95-6.21378E-06-6.81728E-06-8.77958E-06-1.25566E+08 1.26036E+07 3.32296E-06
 -1        96 1.22342E-05 2.05567E-05 1.73516E-06 3.40492E-06-4.45270E-06 6.21798E-06
 -1        97-5.68107E-06-3.23942E-05-2.24337E-05 1.47708E-06-1.26036E+07-1.25566E+08
 -1        98-9.42417E+07-4.03889E+07-4.03896E+07 1.08316E+09 2.48265E+01 5.45106E+08
 -1        99 1.10748E-05 4.61290E-06 4.49036E-06 5.38308E+08 2.23711E+01 1.74493E-05
 -1       100 2.07442E-05 9.00096E-06 8.78624E-06 1.21109E-05-2.23711E+01 5.38308E+08
 -1       101 9.42417E+07 4.03896E+07 4.03889E+07 5.45106E+08-2.48265E+01 1.08316E+09
 -1       102 2.52119E-05 1.06110E-05 1.09236E-05-1.07696E+09 4.72132E+01 1.26660E-05
 -1       103 3.96706E-05 2.20396E+02-2.20396E+02-1.08952E+09-8.93779E-07 1.08952E+09
 -1       104 1.48453E-05 1.61007E-05-5.96140E-06 1.25566E+08 1.26036E+07-5.58794E-08
 -1       105 2.15070E-05-2.40291E+07 2.40291E+07-3.03978E+08 6.89173E-06 3.03978E+08
 -1       106 2.18448E-05 9.21258E-06 8.96398E-06-5.38308E+08 2.23711E+01 1.46814E-05
 -1       107 9.42417E+07 4.03889E+07 4.03896E+07-1.08316E+09 2.48265E+01 5.45106E+08
 -1       108-9.42417E+07-4.03896E+07-4.03889E+07-5.45106E+08-2.48265E+01 1.08316E+09
 -1       109 1.66151E-05-6.56585E+07 6.56585E+07 4.57329E+07-9.09735E-05-4.57329E+07
 -1       110-2.78279E-06 1.34222E-05-2.95788E-06-1.45710E-05-3.53362E+07-5.83500E+08
 -1       111-6.79790E-05-6.58449E+05 6.58449E+05 1.62796E+08 2.05875E-06-1.62796E+08
 -1       112-7.85887E-05-8.34839E-05-2.79401E-05 6.58759E-06-1.73351E+06-3.42513E+08
 -1       113-5.36894E+07-8.58830E+07 1.37947E+07 3.14454E+08 1.87682E+07 4.80336E+07
 -1       114 5.36894E+07-1.37947E+07 8.58830E+07-4.80336E+07-1.87682E+07-3.14454E+08
 -1       115 2.49781E-06 1.11815E-05 4.79445E-06 1.08965E-06-1.65679E+07-2.20231E+08
 -1       116-2.71731E-06 1.79931E+07-1.79931E+07 2.10738E+08-1.13152E-05-2.10738E+08
 -1       117-8.13399E-05-1.36273E-04-5.83157E-05-2.84053E-06 7.04098E+06-5.76772E+08
 -1       118-5.76966E+07-1.89425E+07-1.60098E+07 2.52461E+08 1.25380E+06-6.00169E+07
 -1       119 5.76966E+07 1.60098E+07 1.89425E+07 6.00169E+07-1.25380E+06-2.52461E+08
 -1       120 1.64470E-05 1.11828E-04 7.51773E-05 1.30944E-06-4.79715E+05-1.48922E+08
 -1       121 2.63865E-05 6.56585E+07-6.56585E+07-4.57329E+07 4.36814E-05-4.57329E+07
 -1       122-2.04706E-06 6.58449E+05-6.58449E+05-1.62796E+08-3.04078E-05-1.62796E+08
 -1       123-5.36894E+07 1.37947E+07-8.58830E+07 4.80336E+07-1.87682E+07-3.14454E+08
 -1       124 5.36894E+07 8.58830E+07-1.37947E+07-3.14454E+08 1.87682E+07 4.80336E+07
 -1       125 5.01715E-05-1.79931E+07 1.79931E+07-2.10738E+08-2.95171E-05-2.10738E+08
 -1       126-5.76966E+07-1.60098E+07-1.89425E+07-6.00169E+07-1.25380E+06-2.52461E+08
 -1       127 5.76966E+07 1.89425E+07 1.60098E+07-2.52461E+08 1.25380E+06-6.00169E+07
 -1       128-2.23704E-06-5.63813E+06 5.63813E+06-2.54362E+08-1.22951E-05 2.54362E+08
 -1       129 6.04461E-05 6.56387E-05 3.03332E-05-4.42704E-06-1.37041E+06 8.30170E+08
 -1       130-1.96276E-05 2.17774E+07-2.17774E+07-2.48271E+08-6.69714E-06 2.48271E+08
 -1       131-2.68780E-05-4.45591E-05-1.99676E-05-3.83332E-06 1.09107E+07 4.54421E+08
 -1       132 2.83702E+07-2.11037E+06 4.69531E+06-5.42297E+08 2.33273E+05 5.31275E+07
 -1       133-2.83702E+07-4.69531E+06 2.11037E+06-5.31275E+07-2.33273E+05 5.42297E+08
 -1       134 2.56201E-05-2.46518E-06 8.06723E-06-6.13672E-06-1.13714E+06 3.41241E+08
 -1       135-4.55489E-05 5.63813E+06-5.63813E+06 2.54362E+08 2.70246E-05 2.54362E+08
 -1       136-1.34375E-05-2.17774E+07 2.17774E+07 2.48271E+08-9.75010E-06 2.48271E+08
 -1       137 2.83702E+07 4.69531E+06-2.11037E+06 5.31275E+07-2.33273E+05 5.42297E+08
 -1       138-2.83702E+07 2.11037E+06-4.69531E+06 5.42297E+08 2.33273E+05 5.31275E+07
 -1       139-4.35147E-05 2.52133E+06-2.52133E+06 3.78938E+08-4.11645E-06-3.78938E+08
 -1       140 3.32308E-06 4.05549E-05 1.72840E-05 3.38955E-06 7.91003E+05-1.21349E+09
 -1       141-2.89362E-05-3.91493E+07 3.91493E+07 2.35933E+08-6.71751E-06-2.35933E+08
 -1       142 1.72108E-05 3.16203E-05 1.32397E-05 1.78814E-07-1.90848E+07-3.66328E+08
 -1       143-1.16562E+07 5.00774E+05-2.75457E+06 7.96316E+08-2.46833E+05-8.21596E+07
 -1       144 1.16562E+07 2.75457E+06-5.00774E+05 8.21596E+07 2.46833E+05-7.96316E+08
 -1       145-2.76428E-07 1.36269E-05 8.20134E-06-1.42260E-07 5.44169E+05-5.00023E+08
 -1       146-3.87235E-06-2.52133E+06 2.52133E+06-3.78938E+08 5.63833E-06-3.78938E+08
 -1       147-2.21580E-05 3.91493E+07-3.91493E+07-2.35933E+08 1.24590E-05-2.35933E+08
 -1       148-1.16562E+07-2.75457E+06 5.00774E+05-8.21596E+07 2.46833E+05-7.96316E+08
 -1       149 1.16562E+07-5.00774E+05 2.75457E+06-7.96316E+08-2.46833E+05-8.21596E+07
 -1       150 2.87360E-06 7.30888E+06-7.30888E+06-5.75515E+08 1.83273E-06 5.75515E+08
 -1       151 1.74292E-05 1.62851E-05 1.94581E-05-1.42632E-06 2.47604E+06 1.41978E+09
 -1       152-4.69573E-06 4.58113E+07-4.58113E+07-2.22883E+08-5.67082E-06 2.22883E+08
 -1       153 1.29566E-05 1.90996E-05 1.02893E-05-9.26666E-07 2.20812E+07 2.26819E+08
 -1       154-3.87737E+07-1.83856E+06-1.15731E+07-9.97665E+08-8.76141E+05 1.79982E+08
 -1       155 3.87737E+07 1.15731E+07 1.83856E+06-1.79982E+08 8.76141E+05 9.97665E+08
 -1       156 3.60684E-06 7.05296E-06 3.24682E-06-2.27848E-06 1.59990E+06 6.02221E+08
 -1       157 1.18873E-05-7.30888E+06 7.30888E+06 5.75515E+08-1.17776E-06 5.75515E+08
 -1       158-7.13124E-06-4.58113E+07 4.58113E+07 2.22883E+08 1.83290E-06 2.22883E+08
 -1       159-3.87737E+07-1.15731E+07-1.83856E+06 1.79982E+08 8.76141E+05 9.97665E+08
 -1       160 3.87737E+07 1.83856E+06 1.15731E+07 9.97665E+08-8.76141E+05 1.79982E+08
 -1       161 3.50224E-06 2.20396E+02-2.20396E+02 1.08952E+09 1.95345E-07-1.08952E+09
 -1       162 4.61662E-06 1.80025E-06 1.00408E-06 9.38773E-06-4.72132E+01-1.07696E+09
 -1       163-8.10809E-06-2.40291E+07 2.40291E+07 3.03978E+08 2.54926E-06-3.03978E+08
 -1       164 6.06757E-06 9.69134E-06 8.04290E-06 2.73436E-06-1.26036E+07 1.25566E+08
 -1       165 9.42417E+07 4.03889E+07 4.03896E+07 1.08316E+09 2.48265E+01-5.45106E+08
 -1       166-9.42417E+07-4.03896E+07-4.03889E+07 5.45106E+08-2.48265E+01-1.08316E+09
 -1       167 1.08506E-05 4.74491E-06 4.67012E-06 1.01626E-05-2.23711E+01-5.38308E+08
 -1       168 3.72657E-06-2.20396E+02 2.20396E+02-1.08952E+09-4.83816E-07-1.08952E+09
 -1       169 2.02011E-06 2.40291E+07-2.40291E+07-3.03978E+08-1.53261E-06-3.03978E+08
 -1       170 9.42417E+07 4.03896E+07 4.03889E+07-5.45106E+08-2.48265E+01-1.08316E+09
 -1       171-9.42417E+07-4.03889E+07-4.03896E+07-1.08316E+09 2.48265E+01-5.45106E+08
 -3
 9999
